*SPEF "ieee 1481-1999"
*DESIGN "uart_top"
*DATE "21:49:41 Monday April 06, 2026"
*VENDOR "The OpenROAD Project"
*PROGRAM "OpenROAD"
*VERSION "26Q1-951-g6975124cf2"
*DESIGN_FLOW "NAME_SCOPE LOCAL" "PIN_CAP NONE"
*DIVIDER /
*DELIMITER :
*BUS_DELIMITER []
*T_UNIT 1 NS
*C_UNIT 1 PF
*R_UNIT 1 OHM
*L_UNIT 1 HENRY

*NAME_MAP
*1 _000_
*2 _001_
*3 _002_
*4 _003_
*5 _004_
*6 _005_
*7 _006_
*8 _007_
*9 _008_
*10 _009_
*11 _010_
*12 _011_
*13 _012_
*14 _013_
*15 _014_
*16 _015_
*17 _016_
*18 _017_
*19 _018_
*20 _019_
*21 _020_
*22 _021_
*23 _022_
*24 _023_
*25 _024_
*26 _025_
*27 _026_
*28 _027_
*29 _028_
*30 _029_
*31 _030_
*32 _031_
*33 _032_
*34 _033_
*35 _034_
*36 _035_
*37 _036_
*38 _037_
*39 _038_
*40 _039_
*41 _040_
*42 _041_
*43 _042_
*44 _043_
*45 _044_
*46 _045_
*47 _046_
*48 _047_
*49 _048_
*50 _049_
*51 _050_
*52 _051_
*53 _052_
*54 _053_
*55 _054_
*56 _055_
*57 _056_
*58 _057_
*59 _058_
*60 _059_
*61 _060_
*62 _061_
*63 _062_
*64 _063_
*65 _064_
*66 _065_
*67 _066_
*68 _067_
*69 _068_
*70 _069_
*71 _070_
*72 _071_
*73 _072_
*74 _073_
*75 _074_
*76 _075_
*77 tx_data[3]
*78 tx_data[2]
*79 _078_
*80 _079_
*81 _080_
*82 _081_
*83 _082_
*84 _083_
*85 _084_
*86 tx_data[1]
*87 _086_
*88 tx_data[0]
*89 rx
*90 _089_
*91 _090_
*92 _091_
*93 _092_
*94 _093_
*95 _094_
*96 _095_
*97 _096_
*98 _097_
*99 _098_
*100 _099_
*101 _100_
*102 _101_
*103 _102_
*104 _103_
*105 _104_
*106 _105_
*107 _106_
*108 _107_
*109 _108_
*110 _109_
*111 _110_
*112 _111_
*113 _112_
*114 _113_
*115 _114_
*116 _115_
*117 _116_
*118 _117_
*119 _118_
*120 _119_
*121 _120_
*122 _121_
*123 _122_
*124 _123_
*125 _124_
*126 _125_
*127 _126_
*128 _127_
*129 _128_
*130 _129_
*131 _130_
*132 _131_
*133 _132_
*134 _133_
*135 _134_
*136 _135_
*137 _136_
*138 _137_
*139 _138_
*140 _139_
*141 _140_
*142 _141_
*143 _142_
*144 _143_
*145 _144_
*146 _145_
*147 _146_
*148 _147_
*149 _148_
*150 _149_
*151 _150_
*152 reset_n
*153 _152_
*154 _153_
*155 _154_
*156 _155_
*157 _156_
*158 _157_
*159 _158_
*160 _159_
*161 _160_
*162 _161_
*163 _162_
*164 _163_
*165 _164_
*166 _165_
*167 _166_
*168 _167_
*169 _168_
*170 _169_
*171 _170_
*172 _171_
*173 _172_
*174 _173_
*175 _174_
*176 _175_
*177 _176_
*178 _177_
*179 _178_
*180 _179_
*181 _180_
*182 _181_
*183 _182_
*184 _183_
*185 _184_
*186 _185_
*187 _186_
*188 _187_
*189 _188_
*190 baud_gen\.baud_tick
*191 baud_gen\.counter\[0\]
*192 baud_gen\.counter\[1\]
*193 baud_gen\.counter\[2\]
*194 baud_gen\.counter\[3\]
*195 baud_gen\.counter\[4\]
*196 baud_gen\.counter\[5\]
*197 baud_gen\.counter\[6\]
*198 baud_gen\.counter\[7\]
*199 baud_gen\.counter\[8\]
*200 clk
*201 net1
*202 net2
*203 net12
*204 net13
*205 net14
*206 net15
*207 net16
*208 net17
*209 net18
*210 net19
*211 net20
*212 rx_module\.bit_count\[0\]
*213 rx_module\.bit_count\[1\]
*214 rx_module\.bit_count\[2\]
*215 rx_module\.data_reg\[0\]
*216 rx_module\.data_reg\[1\]
*217 rx_module\.data_reg\[2\]
*218 rx_module\.data_reg\[3\]
*219 rx_module\.data_reg\[4\]
*220 rx_module\.data_reg\[5\]
*221 rx_module\.data_reg\[6\]
*222 rx_module\.data_reg\[7\]
*223 rx_module\.rx_filtered
*224 rx_module\.rx_sync
*225 rx_module\.sample_stage
*226 rx_module\.state\[0\]
*227 rx_module\.state\[1\]
*228 rx_module\.state\[2\]
*229 rx_module\.state\[3\]
*230 rx_module\.tick_count\[0\]
*231 rx_module\.tick_count\[1\]
*232 rx_module\.tick_count\[2\]
*233 rx_module\.tick_count\[3\]
*234 net21
*235 net22
*236 net3
*237 net4
*238 net5
*239 net6
*240 net7
*241 net8
*242 net9
*243 net10
*244 tx_module\.bit_count\[0\]
*245 tx_module\.bit_count\[1\]
*246 tx_module\.bit_count\[2\]
*247 tx_module\.data_reg\[0\]
*248 tx_module\.data_reg\[1\]
*249 tx_module\.data_reg\[2\]
*250 tx_module\.data_reg\[3\]
*251 tx_module\.data_reg\[4\]
*252 tx_module\.data_reg\[5\]
*253 tx_module\.data_reg\[6\]
*254 tx_module\.data_reg\[7\]
*255 tx_module\.state\[0\]
*256 tx_module\.state\[1\]
*257 tx_module\.state\[2\]
*258 tx_module\.state\[3\]
*259 tx_module\.tick_count\[0\]
*260 tx_module\.tick_count\[1\]
*261 tx_module\.tick_count\[2\]
*262 tx_module\.tick_count\[3\]
*263 tx_module\.tx_sample_stage
*264 net11
*267 tx_data[4]
*268 tx_data[5]
*269 tx_data[6]
*270 tx_data[7]
*271 tx_start
*272 rx_data[0]
*273 rx_data[1]
*274 rx_data[2]
*275 rx_data[3]
*276 rx_data[4]
*277 rx_data[5]
*278 rx_data[6]
*279 rx_data[7]
*280 rx_done
*281 tx
*282 tx_busy
*283 net34
*284 net36
*285 net41
*286 net38
*287 net37
*288 net39
*289 net40
*290 clknet_3_2__leaf_clk
*291 clknet_3_1__leaf_clk
*292 clknet_3_0__leaf_clk
*293 clknet_0_clk
*294 net35
*295 net42
*296 net43
*297 net44
*298 net45
*299 clknet_3_3__leaf_clk
*300 clknet_3_4__leaf_clk
*301 clknet_3_5__leaf_clk
*302 clknet_3_6__leaf_clk
*303 clknet_3_7__leaf_clk
*304 net46
*305 input6
*306 input5
*307 _191_
*308 _192_
*309 _193_
*310 _194_
*311 _195_
*312 _196_
*313 _197_
*314 _198_
*315 _199_
*316 _200_
*317 _201_
*318 _202_
*319 input4
*320 _204_
*321 input3
*322 input2
*323 _207_
*324 _208_
*325 _209_
*326 _210_
*327 _211_
*328 _212_
*329 _213_
*330 _214_
*331 _215_
*332 _216_
*333 _217_
*334 _218_
*335 _219_
*336 _220_
*337 _221_
*338 _222_
*339 _223_
*340 _224_
*341 _225_
*342 _226_
*343 _227_
*344 _228_
*345 _229_
*346 _230_
*347 _231_
*348 _232_
*349 _233_
*350 _234_
*351 _235_
*352 _236_
*353 _237_
*354 _238_
*355 _239_
*356 _240_
*357 _241_
*358 _242_
*359 _243_
*360 _244_
*361 _245_
*362 _246_
*363 _247_
*364 _248_
*365 _249_
*366 _250_
*367 _251_
*368 _252_
*369 _253_
*370 _254_
*371 _255_
*372 _256_
*373 _257_
*374 _258_
*375 _259_
*376 _260_
*377 _261_
*378 _262_
*379 _263_
*380 _264_
*381 _265_
*382 _266_
*383 _267_
*384 _268_
*385 _269_
*386 _270_
*387 _271_
*388 _272_
*389 _273_
*390 _274_
*391 _275_
*392 _276_
*393 _277_
*394 _278_
*395 _279_
*396 _280_
*397 _281_
*398 _282_
*399 _283_
*400 _284_
*401 _285_
*402 _286_
*403 _287_
*404 _288_
*405 _289_
*406 _290_
*407 _291_
*408 _292_
*409 _293_
*410 _294_
*411 _295_
*412 _296_
*413 _297_
*414 _298_
*415 _299_
*416 _300_
*417 _301_
*418 _302_
*419 _303_
*420 _304_
*421 _305_
*422 _306_
*423 _307_
*424 _308_
*425 _309_
*426 _310_
*427 _311_
*428 _312_
*429 _313_
*430 input1
*431 _315_
*432 _316_
*433 _317_
*434 _318_
*435 _319_
*436 _320_
*437 _321_
*438 _322_
*439 _323_
*440 _324_
*441 _325_
*442 _326_
*443 _327_
*444 _328_
*445 _329_
*446 _330_
*447 _331_
*448 _332_
*449 _333_
*450 _334_
*451 _335_
*452 _336_
*453 _337_
*454 _338_
*455 _339_
*456 _340_
*457 _341_
*458 _342_
*459 _343_
*460 _344_
*461 _345_
*462 _346_
*463 _347_
*464 _348_
*465 _349_
*466 _350_
*467 _351_
*468 _352_
*469 _353_
*470 _354_
*471 _355_
*472 _356_
*473 _357_
*474 _358_
*475 _359_
*476 _360_
*477 _361_
*478 _362_
*479 _363_
*480 _364_
*481 _365_
*482 _366_
*483 _367_
*484 _368_
*485 _369_
*486 baud_gen\.baud_tick\$_DFF_PN0_
*487 baud_gen\.counter\[0\]\$_DFF_PN0_
*488 baud_gen\.counter\[1\]\$_DFF_PN0_
*489 baud_gen\.counter\[2\]\$_DFF_PN0_
*490 baud_gen\.counter\[3\]\$_DFF_PN0_
*491 baud_gen\.counter\[4\]\$_DFF_PN0_
*492 baud_gen\.counter\[5\]\$_DFF_PN0_
*493 baud_gen\.counter\[6\]\$_DFF_PN0_
*494 baud_gen\.counter\[7\]\$_DFF_PN0_
*495 baud_gen\.counter\[8\]\$_DFF_PN0_
*496 rx_module\.bit_count\[0\]\$_DFFE_PN0P_
*497 rx_module\.bit_count\[1\]\$_DFFE_PN0P_
*498 rx_module\.bit_count\[2\]\$_DFFE_PN0P_
*499 rx_module\.data_reg\[0\]\$_DFFE_PN0P_
*500 rx_module\.data_reg\[1\]\$_DFFE_PN0P_
*501 rx_module\.data_reg\[2\]\$_DFFE_PN0P_
*502 rx_module\.data_reg\[3\]\$_DFFE_PN0P_
*503 rx_module\.data_reg\[4\]\$_DFFE_PN0P_
*504 rx_module\.data_reg\[5\]\$_DFFE_PN0P_
*505 rx_module\.data_reg\[6\]\$_DFFE_PN0P_
*506 rx_module\.data_reg\[7\]\$_DFFE_PN0P_
*507 rx_module\.rx_data\[0\]\$_DFFE_PN0P_
*508 rx_module\.rx_data\[1\]\$_DFFE_PN0P_
*509 rx_module\.rx_data\[2\]\$_DFFE_PN0P_
*510 rx_module\.rx_data\[3\]\$_DFFE_PN0P_
*511 rx_module\.rx_data\[4\]\$_DFFE_PN0P_
*512 rx_module\.rx_data\[5\]\$_DFFE_PN0P_
*513 rx_module\.rx_data\[6\]\$_DFFE_PN0P_
*514 rx_module\.rx_data\[7\]\$_DFFE_PN0P_
*515 rx_module\.rx_done\$_DFFE_PN0P_
*516 rx_module\.rx_filtered\$_DFF_P_
*517 rx_module\.rx_sync\$_DFF_P_
*518 rx_module\.sample_stage\$_DFF_PN0_
*519 rx_module\.state\[0\]\$_DFF_PN1_
*520 rx_module\.state\[1\]\$_DFF_PN0_
*521 rx_module\.state\[2\]\$_DFF_PN0_
*522 rx_module\.state\[3\]\$_DFF_PN0_
*523 rx_module\.tick_count\[0\]\$_DFFE_PN0P_
*524 rx_module\.tick_count\[1\]\$_DFFE_PN0P_
*525 rx_module\.tick_count\[2\]\$_DFFE_PN0P_
*526 rx_module\.tick_count\[3\]\$_DFFE_PN0P_
*527 tx_module\.bit_count\[0\]\$_DFFE_PN0P_
*528 tx_module\.bit_count\[1\]\$_DFFE_PN0P_
*529 tx_module\.bit_count\[2\]\$_DFFE_PN0P_
*530 tx_module\.data_reg\[0\]\$_DFFE_PN0P_
*531 tx_module\.data_reg\[1\]\$_DFFE_PN0P_
*532 tx_module\.data_reg\[2\]\$_DFFE_PN0P_
*533 tx_module\.data_reg\[3\]\$_DFFE_PN0P_
*534 tx_module\.data_reg\[4\]\$_DFFE_PN0P_
*535 tx_module\.data_reg\[5\]\$_DFFE_PN0P_
*536 tx_module\.data_reg\[6\]\$_DFFE_PN0P_
*537 tx_module\.data_reg\[7\]\$_DFFE_PN0P_
*538 tx_module\.state\[0\]\$_DFF_PN1_
*539 tx_module\.state\[1\]\$_DFF_PN0_
*540 tx_module\.state\[2\]\$_DFF_PN0_
*541 tx_module\.state\[3\]\$_DFF_PN0_
*542 tx_module\.tick_count\[0\]\$_DFFE_PN0P_
*543 tx_module\.tick_count\[1\]\$_DFFE_PN0P_
*544 tx_module\.tick_count\[2\]\$_DFFE_PN0P_
*545 tx_module\.tick_count\[3\]\$_DFFE_PN0P_
*546 tx_module\.tx\$_DFF_PN1_
*547 tx_module\.tx_busy\$_DFFE_PN0P_
*548 tx_module\.tx_sample_stage\$_DFF_PN0_
*549 TAP_TAPCELL_ROW_0_0
*550 TAP_TAPCELL_ROW_0_1
*551 TAP_TAPCELL_ROW_0_2
*552 TAP_TAPCELL_ROW_0_3
*553 TAP_TAPCELL_ROW_0_4
*554 TAP_TAPCELL_ROW_1_5
*555 TAP_TAPCELL_ROW_1_6
*556 TAP_TAPCELL_ROW_2_7
*557 TAP_TAPCELL_ROW_2_8
*558 TAP_TAPCELL_ROW_2_9
*559 TAP_TAPCELL_ROW_3_10
*560 TAP_TAPCELL_ROW_3_11
*561 TAP_TAPCELL_ROW_4_12
*562 TAP_TAPCELL_ROW_4_13
*563 TAP_TAPCELL_ROW_4_14
*564 TAP_TAPCELL_ROW_5_15
*565 TAP_TAPCELL_ROW_5_16
*566 TAP_TAPCELL_ROW_6_17
*567 TAP_TAPCELL_ROW_6_18
*568 TAP_TAPCELL_ROW_6_19
*569 TAP_TAPCELL_ROW_7_20
*570 TAP_TAPCELL_ROW_7_21
*571 TAP_TAPCELL_ROW_8_22
*572 TAP_TAPCELL_ROW_8_23
*573 TAP_TAPCELL_ROW_8_24
*574 TAP_TAPCELL_ROW_9_25
*575 TAP_TAPCELL_ROW_9_26
*576 TAP_TAPCELL_ROW_10_27
*577 TAP_TAPCELL_ROW_10_28
*578 TAP_TAPCELL_ROW_10_29
*579 TAP_TAPCELL_ROW_11_30
*580 TAP_TAPCELL_ROW_11_31
*581 TAP_TAPCELL_ROW_12_32
*582 TAP_TAPCELL_ROW_12_33
*583 TAP_TAPCELL_ROW_12_34
*584 TAP_TAPCELL_ROW_13_35
*585 TAP_TAPCELL_ROW_13_36
*586 TAP_TAPCELL_ROW_14_37
*587 TAP_TAPCELL_ROW_14_38
*588 TAP_TAPCELL_ROW_14_39
*589 TAP_TAPCELL_ROW_15_40
*590 TAP_TAPCELL_ROW_15_41
*591 TAP_TAPCELL_ROW_16_42
*592 TAP_TAPCELL_ROW_16_43
*593 TAP_TAPCELL_ROW_16_44
*594 TAP_TAPCELL_ROW_17_45
*595 TAP_TAPCELL_ROW_17_46
*596 TAP_TAPCELL_ROW_18_47
*597 TAP_TAPCELL_ROW_18_48
*598 TAP_TAPCELL_ROW_18_49
*599 TAP_TAPCELL_ROW_19_50
*600 TAP_TAPCELL_ROW_19_51
*601 TAP_TAPCELL_ROW_20_52
*602 TAP_TAPCELL_ROW_20_53
*603 TAP_TAPCELL_ROW_20_54
*604 TAP_TAPCELL_ROW_21_55
*605 TAP_TAPCELL_ROW_21_56
*606 TAP_TAPCELL_ROW_22_57
*607 TAP_TAPCELL_ROW_22_58
*608 TAP_TAPCELL_ROW_22_59
*609 TAP_TAPCELL_ROW_23_60
*610 TAP_TAPCELL_ROW_23_61
*611 TAP_TAPCELL_ROW_24_62
*612 TAP_TAPCELL_ROW_24_63
*613 TAP_TAPCELL_ROW_24_64
*614 TAP_TAPCELL_ROW_25_65
*615 TAP_TAPCELL_ROW_25_66
*616 TAP_TAPCELL_ROW_26_67
*617 TAP_TAPCELL_ROW_26_68
*618 TAP_TAPCELL_ROW_26_69
*619 TAP_TAPCELL_ROW_27_70
*620 TAP_TAPCELL_ROW_27_71
*621 TAP_TAPCELL_ROW_28_72
*622 TAP_TAPCELL_ROW_28_73
*623 TAP_TAPCELL_ROW_28_74
*624 TAP_TAPCELL_ROW_28_75
*625 TAP_TAPCELL_ROW_28_76
*626 input7
*627 input8
*628 input9
*629 input10
*630 input11
*631 output12
*632 output13
*633 output14
*634 output15
*635 output16
*636 output17
*637 output18
*638 output19
*639 output20
*640 output21
*641 output22
*642 place34
*643 place36
*644 place41
*645 place38
*646 place37
*647 place39
*648 place40
*649 clkbuf_3_2__f_clk
*650 clkbuf_3_1__f_clk
*651 clkbuf_3_0__f_clk
*652 clkbuf_0_clk
*653 place35
*654 place42
*655 place43
*656 place44
*657 place45
*658 clkbuf_3_3__f_clk
*659 clkbuf_3_4__f_clk
*660 clkbuf_3_5__f_clk
*661 clkbuf_3_6__f_clk
*662 clkbuf_3_7__f_clk
*663 clkload0
*664 clkload1
*665 clkload2
*666 clkload3
*667 clkload4
*668 clkload5
*669 clkload6
*670 hold46
*671 FILLER_0_0
*672 FILLER_0_8
*673 FILLER_0_16
*674 FILLER_0_28
*675 FILLER_0_31
*676 FILLER_0_33
*677 FILLER_0_50
*678 FILLER_0_61
*679 FILLER_0_69
*680 FILLER_0_77
*681 FILLER_0_81
*682 FILLER_0_91
*683 FILLER_0_99
*684 FILLER_0_108
*685 FILLER_0_116
*686 FILLER_0_121
*687 FILLER_0_129
*688 FILLER_0_137
*689 FILLER_0_145
*690 FILLER_0_149
*691 FILLER_0_151
*692 FILLER_0_159
*693 FILLER_0_167
*694 FILLER_0_171
*695 FILLER_1_0
*696 FILLER_1_8
*697 FILLER_1_16
*698 FILLER_1_20
*699 FILLER_1_29
*700 FILLER_1_37
*701 FILLER_1_45
*702 FILLER_1_49
*703 FILLER_1_51
*704 FILLER_1_61
*705 FILLER_1_99
*706 FILLER_1_121
*707 FILLER_1_125
*708 FILLER_1_132
*709 FILLER_1_140
*710 FILLER_1_148
*711 FILLER_1_152
*712 FILLER_1_157
*713 FILLER_1_165
*714 FILLER_2_0
*715 FILLER_2_8
*716 FILLER_2_31
*717 FILLER_2_33
*718 FILLER_2_70
*719 FILLER_2_82
*720 FILLER_2_84
*721 FILLER_2_91
*722 FILLER_2_95
*723 FILLER_2_132
*724 FILLER_2_140
*725 FILLER_2_148
*726 FILLER_2_151
*727 FILLER_2_159
*728 FILLER_2_163
*729 FILLER_3_27
*730 FILLER_3_31
*731 FILLER_3_37
*732 FILLER_3_39
*733 FILLER_3_58
*734 FILLER_3_64
*735 FILLER_3_72
*736 FILLER_3_74
*737 FILLER_3_83
*738 FILLER_3_105
*739 FILLER_3_113
*740 FILLER_3_117
*741 FILLER_3_119
*742 FILLER_3_121
*743 FILLER_3_129
*744 FILLER_3_137
*745 FILLER_3_145
*746 FILLER_3_153
*747 FILLER_3_161
*748 FILLER_3_169
*749 FILLER_4_0
*750 FILLER_4_8
*751 FILLER_4_16
*752 FILLER_4_24
*753 FILLER_4_28
*754 FILLER_4_31
*755 FILLER_4_52
*756 FILLER_4_60
*757 FILLER_4_68
*758 FILLER_4_72
*759 FILLER_4_80
*760 FILLER_4_82
*761 FILLER_4_91
*762 FILLER_4_99
*763 FILLER_4_103
*764 FILLER_4_107
*765 FILLER_4_127
*766 FILLER_4_135
*767 FILLER_4_143
*768 FILLER_4_147
*769 FILLER_4_149
*770 FILLER_4_151
*771 FILLER_4_159
*772 FILLER_4_167
*773 FILLER_4_171
*774 FILLER_5_0
*775 FILLER_5_12
*776 FILLER_5_21
*777 FILLER_5_25
*778 FILLER_5_27
*779 FILLER_5_34
*780 FILLER_5_42
*781 FILLER_5_50
*782 FILLER_5_57
*783 FILLER_5_59
*784 FILLER_5_61
*785 FILLER_5_121
*786 FILLER_5_125
*787 FILLER_5_131
*788 FILLER_5_141
*789 FILLER_5_157
*790 FILLER_5_165
*791 FILLER_6_0
*792 FILLER_6_4
*793 FILLER_6_6
*794 FILLER_6_22
*795 FILLER_6_39
*796 FILLER_6_84
*797 FILLER_6_100
*798 FILLER_6_151
*799 FILLER_7_65
*800 FILLER_7_73
*801 FILLER_7_89
*802 FILLER_7_97
*803 FILLER_7_101
*804 FILLER_7_106
*805 FILLER_7_114
*806 FILLER_7_118
*807 FILLER_7_148
*808 FILLER_7_156
*809 FILLER_7_164
*810 FILLER_7_172
*811 FILLER_8_0
*812 FILLER_8_12
*813 FILLER_8_22
*814 FILLER_8_31
*815 FILLER_8_39
*816 FILLER_8_43
*817 FILLER_8_68
*818 FILLER_8_76
*819 FILLER_8_80
*820 FILLER_8_91
*821 FILLER_8_99
*822 FILLER_8_103
*823 FILLER_8_105
*824 FILLER_8_114
*825 FILLER_8_116
*826 FILLER_8_135
*827 FILLER_8_144
*828 FILLER_8_151
*829 FILLER_8_161
*830 FILLER_8_169
*831 FILLER_9_0
*832 FILLER_9_8
*833 FILLER_9_16
*834 FILLER_9_24
*835 FILLER_9_45
*836 FILLER_9_53
*837 FILLER_9_57
*838 FILLER_9_59
*839 FILLER_9_61
*840 FILLER_9_85
*841 FILLER_9_87
*842 FILLER_9_98
*843 FILLER_9_121
*844 FILLER_9_129
*845 FILLER_9_137
*846 FILLER_9_149
*847 FILLER_10_0
*848 FILLER_10_8
*849 FILLER_10_16
*850 FILLER_10_20
*851 FILLER_10_26
*852 FILLER_10_31
*853 FILLER_10_39
*854 FILLER_10_41
*855 FILLER_10_69
*856 FILLER_10_77
*857 FILLER_10_79
*858 FILLER_10_91
*859 FILLER_10_95
*860 FILLER_10_108
*861 FILLER_10_116
*862 FILLER_10_124
*863 FILLER_10_132
*864 FILLER_10_137
*865 FILLER_10_149
*866 FILLER_10_151
*867 FILLER_10_159
*868 FILLER_10_167
*869 FILLER_10_171
*870 FILLER_11_0
*871 FILLER_11_8
*872 FILLER_11_29
*873 FILLER_11_43
*874 FILLER_11_56
*875 FILLER_11_61
*876 FILLER_11_69
*877 FILLER_11_73
*878 FILLER_11_84
*879 FILLER_11_86
*880 FILLER_11_107
*881 FILLER_11_111
*882 FILLER_11_121
*883 FILLER_11_129
*884 FILLER_11_147
*885 FILLER_11_152
*886 FILLER_12_0
*887 FILLER_12_8
*888 FILLER_12_16
*889 FILLER_12_24
*890 FILLER_12_26
*891 FILLER_12_34
*892 FILLER_12_38
*893 FILLER_12_53
*894 FILLER_12_58
*895 FILLER_12_60
*896 FILLER_12_89
*897 FILLER_12_99
*898 FILLER_12_103
*899 FILLER_12_148
*900 FILLER_12_151
*901 FILLER_12_159
*902 FILLER_12_167
*903 FILLER_12_171
*904 FILLER_13_0
*905 FILLER_13_8
*906 FILLER_13_16
*907 FILLER_13_20
*908 FILLER_13_35
*909 FILLER_13_39
*910 FILLER_13_45
*911 FILLER_13_53
*912 FILLER_13_57
*913 FILLER_13_59
*914 FILLER_13_61
*915 FILLER_13_69
*916 FILLER_13_77
*917 FILLER_13_118
*918 FILLER_13_132
*919 FILLER_13_140
*920 FILLER_13_148
*921 FILLER_13_156
*922 FILLER_13_164
*923 FILLER_13_172
*924 FILLER_14_27
*925 FILLER_14_29
*926 FILLER_14_31
*927 FILLER_14_35
*928 FILLER_14_40
*929 FILLER_14_50
*930 FILLER_14_55
*931 FILLER_14_88
*932 FILLER_14_91
*933 FILLER_14_99
*934 FILLER_14_103
*935 FILLER_14_105
*936 FILLER_14_151
*937 FILLER_14_159
*938 FILLER_14_167
*939 FILLER_14_171
*940 FILLER_15_0
*941 FILLER_15_21
*942 FILLER_15_27
*943 FILLER_15_35
*944 FILLER_15_46
*945 FILLER_15_50
*946 FILLER_15_52
*947 FILLER_15_61
*948 FILLER_15_69
*949 FILLER_15_73
*950 FILLER_15_95
*951 FILLER_15_103
*952 FILLER_15_134
*953 FILLER_15_146
*954 FILLER_15_154
*955 FILLER_15_162
*956 FILLER_15_170
*957 FILLER_15_172
*958 FILLER_16_0
*959 FILLER_16_12
*960 FILLER_16_24
*961 FILLER_16_38
*962 FILLER_16_40
*963 FILLER_16_47
*964 FILLER_16_55
*965 FILLER_16_83
*966 FILLER_16_87
*967 FILLER_16_89
*968 FILLER_16_91
*969 FILLER_16_95
*970 FILLER_16_100
*971 FILLER_16_104
*972 FILLER_16_106
*973 FILLER_16_119
*974 FILLER_16_143
*975 FILLER_16_147
*976 FILLER_16_149
*977 FILLER_16_151
*978 FILLER_16_159
*979 FILLER_16_167
*980 FILLER_16_171
*981 FILLER_17_0
*982 FILLER_17_51
*983 FILLER_17_59
*984 FILLER_17_61
*985 FILLER_17_69
*986 FILLER_17_77
*987 FILLER_17_85
*988 FILLER_17_91
*989 FILLER_17_98
*990 FILLER_17_121
*991 FILLER_17_148
*992 FILLER_17_156
*993 FILLER_17_164
*994 FILLER_17_172
*995 FILLER_18_0
*996 FILLER_18_24
*997 FILLER_18_28
*998 FILLER_18_35
*999 FILLER_18_37
*1000 FILLER_18_74
*1001 FILLER_18_82
*1002 FILLER_18_91
*1003 FILLER_18_99
*1004 FILLER_18_103
*1005 FILLER_18_111
*1006 FILLER_18_119
*1007 FILLER_18_134
*1008 FILLER_18_146
*1009 FILLER_18_151
*1010 FILLER_18_159
*1011 FILLER_18_167
*1012 FILLER_18_171
*1013 FILLER_19_0
*1014 FILLER_19_8
*1015 FILLER_19_16
*1016 FILLER_19_24
*1017 FILLER_19_32
*1018 FILLER_19_40
*1019 FILLER_19_48
*1020 FILLER_19_56
*1021 FILLER_19_61
*1022 FILLER_19_96
*1023 FILLER_19_98
*1024 FILLER_19_134
*1025 FILLER_19_138
*1026 FILLER_19_140
*1027 FILLER_19_161
*1028 FILLER_19_169
*1029 FILLER_20_0
*1030 FILLER_20_71
*1031 FILLER_20_75
*1032 FILLER_20_77
*1033 FILLER_20_83
*1034 FILLER_20_88
*1035 FILLER_20_91
*1036 FILLER_20_95
*1037 FILLER_20_104
*1038 FILLER_20_111
*1039 FILLER_20_151
*1040 FILLER_20_159
*1041 FILLER_20_167
*1042 FILLER_20_171
*1043 FILLER_21_0
*1044 FILLER_21_30
*1045 FILLER_21_38
*1046 FILLER_21_48
*1047 FILLER_21_56
*1048 FILLER_21_70
*1049 FILLER_21_94
*1050 FILLER_21_102
*1051 FILLER_21_110
*1052 FILLER_21_118
*1053 FILLER_21_121
*1054 FILLER_21_125
*1055 FILLER_21_144
*1056 FILLER_21_152
*1057 FILLER_21_160
*1058 FILLER_21_168
*1059 FILLER_21_172
*1060 FILLER_22_0
*1061 FILLER_22_8
*1062 FILLER_22_18
*1063 FILLER_22_26
*1064 FILLER_22_31
*1065 FILLER_22_39
*1066 FILLER_22_81
*1067 FILLER_22_89
*1068 FILLER_22_91
*1069 FILLER_22_102
*1070 FILLER_22_124
*1071 FILLER_22_131
*1072 FILLER_22_133
*1073 FILLER_22_138
*1074 FILLER_22_146
*1075 FILLER_22_151
*1076 FILLER_22_159
*1077 FILLER_22_167
*1078 FILLER_22_171
*1079 FILLER_23_0
*1080 FILLER_23_21
*1081 FILLER_23_53
*1082 FILLER_23_57
*1083 FILLER_23_59
*1084 FILLER_23_61
*1085 FILLER_23_63
*1086 FILLER_23_73
*1087 FILLER_23_84
*1088 FILLER_23_92
*1089 FILLER_23_114
*1090 FILLER_23_116
*1091 FILLER_23_141
*1092 FILLER_23_149
*1093 FILLER_23_157
*1094 FILLER_23_165
*1095 FILLER_24_0
*1096 FILLER_24_8
*1097 FILLER_24_18
*1098 FILLER_24_26
*1099 FILLER_24_31
*1100 FILLER_24_109
*1101 FILLER_24_117
*1102 FILLER_24_143
*1103 FILLER_24_147
*1104 FILLER_24_149
*1105 FILLER_24_151
*1106 FILLER_24_159
*1107 FILLER_24_167
*1108 FILLER_24_171
*1109 FILLER_25_0
*1110 FILLER_25_30
*1111 FILLER_25_34
*1112 FILLER_25_54
*1113 FILLER_25_58
*1114 FILLER_25_61
*1115 FILLER_25_69
*1116 FILLER_25_73
*1117 FILLER_25_75
*1118 FILLER_25_85
*1119 FILLER_25_113
*1120 FILLER_25_117
*1121 FILLER_25_119
*1122 FILLER_25_121
*1123 FILLER_25_125
*1124 FILLER_25_153
*1125 FILLER_25_161
*1126 FILLER_25_169
*1127 FILLER_26_0
*1128 FILLER_26_8
*1129 FILLER_26_16
*1130 FILLER_26_26
*1131 FILLER_26_31
*1132 FILLER_26_33
*1133 FILLER_26_54
*1134 FILLER_26_58
*1135 FILLER_26_60
*1136 FILLER_26_99
*1137 FILLER_26_137
*1138 FILLER_26_144
*1139 FILLER_26_148
*1140 FILLER_26_151
*1141 FILLER_26_159
*1142 FILLER_26_167
*1143 FILLER_26_171
*1144 FILLER_27_0
*1145 FILLER_27_8
*1146 FILLER_27_16
*1147 FILLER_27_45
*1148 FILLER_27_58
*1149 FILLER_27_81
*1150 FILLER_27_89
*1151 FILLER_27_97
*1152 FILLER_27_105
*1153 FILLER_27_146
*1154 FILLER_27_154
*1155 FILLER_27_162
*1156 FILLER_27_170
*1157 FILLER_27_172
*1158 FILLER_28_0
*1159 FILLER_28_8
*1160 FILLER_28_16
*1161 FILLER_28_24
*1162 FILLER_28_28
*1163 FILLER_28_39
*1164 FILLER_28_47
*1165 FILLER_28_51
*1166 FILLER_28_61
*1167 FILLER_28_69
*1168 FILLER_28_78
*1169 FILLER_28_91
*1170 FILLER_28_93
*1171 FILLER_28_102
*1172 FILLER_28_110
*1173 FILLER_28_118
*1174 FILLER_28_121
*1175 FILLER_28_129
*1176 FILLER_28_151
*1177 FILLER_28_159
*1178 FILLER_28_167
*1179 FILLER_28_171

*PORTS
clk I
reset_n I
rx I
rx_data[0] O
rx_data[1] O
rx_data[2] O
rx_data[3] O
rx_data[4] O
rx_data[5] O
rx_data[6] O
rx_data[7] O
rx_done O
tx O
tx_busy O
tx_data[0] I
tx_data[1] I
tx_data[2] I
tx_data[3] I
tx_data[4] I
tx_data[5] I
tx_data[6] I
tx_data[7] I
tx_start I

*D_NET *1 0.0012917
*CONN
*I *519:D I *D sky130_fd_sc_hd__dfstp_2
*I *334:Y O *D sky130_fd_sc_hd__o21ai_0
*CAP
1 *519:D 0.000494346
2 *334:Y 0.000494346
3 *519:D *328:A 0
4 *519:D *333:B1 1.39721e-05
5 *519:D *381:A2 5.68225e-06
6 *519:D *381:B1 0.000169078
7 *519:D *639:A 0
8 *519:D *223:49 0
9 *519:D *226:39 0.000114271
10 *519:D *293:47 0
*RES
1 *334:Y *519:D 39.5002 
*END

*D_NET *2 0.000886216
*CONN
*I *520:D I *D sky130_fd_sc_hd__dfrtp_1
*I *331:X O *D sky130_fd_sc_hd__a22o_1
*CAP
1 *520:D 0.000163176
2 *331:X 0.000163176
3 *520:D *331:B2 0.000114659
4 *520:D *366:A 2.29454e-05
5 *520:D *520:CLK 5.97561e-05
6 *520:D *115:10 0.000169442
7 *520:D *288:12 3.27269e-05
8 *520:D *288:16 6.3657e-05
9 *520:D *288:31 9.66779e-05
*RES
1 *331:X *520:D 34.7664 
*END

*D_NET *3 0.000868087
*CONN
*I *521:D I *D sky130_fd_sc_hd__dfrtp_1
*I *327:Y O *D sky130_fd_sc_hd__o21ai_0
*CAP
1 *521:D 0.000336023
2 *327:Y 0.000336023
3 *521:D *326:A1 0
4 *521:D *521:RESET_B 4.21937e-05
5 *521:D *297:89 2.24632e-05
6 *521:D *297:99 5.05907e-05
7 *521:D *297:109 8.07939e-05
*RES
1 *327:Y *521:D 36.4246 
*END

*D_NET *4 0.00024297
*CONN
*I *522:D I *D sky130_fd_sc_hd__dfrtp_1
*I *324:Y O *D sky130_fd_sc_hd__nand2_1
*CAP
1 *522:D 5.55039e-05
2 *324:Y 5.55039e-05
3 *522:D *324:B 3.56264e-05
4 *522:D *298:101 1.03594e-05
5 *522:D *298:115 8.5976e-05
*RES
1 *324:Y *522:D 29.3303 
*END

*D_NET *5 0.000739088
*CONN
*I *538:D I *D sky130_fd_sc_hd__dfstp_2
*I *316:X O *D sky130_fd_sc_hd__a22o_1
*CAP
1 *538:D 0.000253135
2 *316:X 0.000253135
3 *538:D *83:10 0
4 *538:D *255:10 7.58194e-05
5 *538:D *258:61 0.000112808
6 *538:D *296:58 4.41915e-05
*RES
1 *316:X *538:D 33.2714 
*END

*D_NET *6 0.000287448
*CONN
*I *539:D I *D sky130_fd_sc_hd__dfrtp_1
*I *314:X O *D sky130_fd_sc_hd__a22o_1
*CAP
1 *539:D 0.000116355
2 *314:X 0.000116355
3 *539:D *314:B2 0
4 *539:D *147:69 2.81717e-05
5 *539:D *290:56 2.65667e-05
*RES
1 *314:X *539:D 21.4642 
*END

*D_NET *7 0.000309003
*CONN
*I *540:D I *D sky130_fd_sc_hd__dfrtp_1
*I *311:X O *D sky130_fd_sc_hd__a22o_1
*CAP
1 *540:D 0.000145287
2 *311:X 0.000145287
3 *540:D *311:A1 0
4 *540:D *540:CLK 1.84293e-05
*RES
1 *311:X *540:D 21.633 
*END

*D_NET *8 0.000488331
*CONN
*I *541:D I *D sky130_fd_sc_hd__dfrtp_1
*I *309:X O *D sky130_fd_sc_hd__a32o_1
*CAP
1 *541:D 0.000214053
2 *309:X 0.000214053
3 *541:D *309:A2 1.92926e-05
4 *541:D *541:CLK 3.17474e-05
5 *541:D *286:25 9.18559e-06
*RES
1 *309:X *541:D 31.5781 
*END

*D_NET *9 0.00196545
*CONN
*I *356:B1 I *D sky130_fd_sc_hd__a21oi_1
*I *642:A I *D sky130_fd_sc_hd__buf_4
*I *362:A I *D sky130_fd_sc_hd__nor2_1
*I *337:Y O *D sky130_fd_sc_hd__nor4_2
*CAP
1 *356:B1 0.000222901
2 *642:A 2.32525e-05
3 *362:A 0.000238089
4 *337:Y 0.000312865
5 *9:38 0.00032093
6 *356:B1 *197:10 2.1203e-06
7 *356:B1 *197:16 0.000248086
8 *356:B1 *283:6 0.000175485
9 *362:A *335:B 5.5152e-06
10 *362:A *335:C 7.40253e-05
11 *362:A *337:C 2.20471e-05
12 *362:A *360:A 2.03973e-05
13 *362:A *360:C 0
14 *362:A *106:10 7.40253e-05
15 *362:A *197:35 4.24488e-05
16 *642:A *197:16 6.50586e-05
17 *9:38 *104:29 0.000118207
18 *9:38 *293:119 0
*RES
1 *337:Y *362:A 33.0625 
2 *337:Y *9:38 20.4964 
3 *9:38 *642:A 9.97254 
4 *9:38 *356:B1 25.0992 
*END

*D_NET *10 0.000606325
*CONN
*I *487:D I *D sky130_fd_sc_hd__dfrtp_1
*I *339:Y O *D sky130_fd_sc_hd__nor2_1
*CAP
1 *487:D 0.000246063
2 *339:Y 0.000246063
3 *487:D *340:A 2.56919e-05
4 *487:D *488:CLK 7.60183e-05
5 *487:D *283:20 1.24886e-05
*RES
1 *339:Y *487:D 32.0498 
*END

*D_NET *11 0.00150493
*CONN
*I *488:D I *D sky130_fd_sc_hd__dfrtp_1
*I *340:Y O *D sky130_fd_sc_hd__nor2b_1
*CAP
1 *488:D 0.000594058
2 *340:Y 0.000594058
3 *488:D *340:A 2.84758e-05
4 *488:D *340:B_N 8.77361e-05
5 *488:D *488:CLK 0.0002006
6 *488:D *191:31 0
*RES
1 *340:Y *488:D 39.1174 
*END

*D_NET *12 0.00119496
*CONN
*I *489:D I *D sky130_fd_sc_hd__dfrtp_1
*I *342:Y O *D sky130_fd_sc_hd__nor2_1
*CAP
1 *489:D 0.00052455
2 *342:Y 0.00052455
3 *489:D *664:A 9.0845e-05
4 *489:D *193:14 0
5 *489:D *283:16 3.58759e-05
6 *489:D *283:20 1.83992e-05
7 *489:D *293:79 7.37904e-07
8 *489:D *293:91 0
*RES
1 *342:Y *489:D 37.6732 
*END

*D_NET *13 0.00068574
*CONN
*I *490:D I *D sky130_fd_sc_hd__dfrtp_1
*I *345:Y O *D sky130_fd_sc_hd__nor2_1
*CAP
1 *490:D 7.74769e-05
2 *345:Y 7.74769e-05
3 *490:D *345:A 2.57986e-05
4 *490:D *490:CLK 7.90125e-05
5 *490:D *194:6 0.000425976
*RES
1 *345:Y *490:D 23.1039 
*END

*D_NET *14 0.000555759
*CONN
*I *491:D I *D sky130_fd_sc_hd__dfrtp_1
*I *347:Y O *D sky130_fd_sc_hd__xnor2_1
*CAP
1 *491:D 0.000264987
2 *347:Y 0.000264987
3 *491:D *195:12 2.57847e-05
*RES
1 *347:Y *491:D 32.3015 
*END

*D_NET *15 0.0021257
*CONN
*I *492:D I *D sky130_fd_sc_hd__dfrtp_1
*I *352:X O *D sky130_fd_sc_hd__xor2_1
*CAP
1 *492:D 0.000851103
2 *352:X 0.000851103
3 *492:D *492:RESET_B 7.83848e-06
4 *492:D *492:CLK 2.91206e-05
5 *492:D *196:6 0.000114271
6 *492:D *196:17 6.27718e-05
7 *492:D *196:32 0.000209492
*RES
1 *352:X *492:D 31.5013 
*END

*D_NET *16 0.00101708
*CONN
*I *493:D I *D sky130_fd_sc_hd__dfrtp_1
*I *356:Y O *D sky130_fd_sc_hd__a21oi_1
*CAP
1 *493:D 0.000318241
2 *356:Y 0.000318241
3 *493:D *197:10 0
4 *493:D *300:8 0.000380598
*RES
1 *356:Y *493:D 33.4175 
*END

*D_NET *17 0.00159875
*CONN
*I *494:D I *D sky130_fd_sc_hd__dfrtp_1
*I *358:X O *D sky130_fd_sc_hd__xor2_1
*CAP
1 *494:D 0.000719447
2 *358:X 0.000719447
3 *494:D *358:B 1.50709e-05
4 *494:D *359:B 0
5 *494:D *360:B 0
6 *494:D *362:B 0
7 *494:D *492:CLK 5.37077e-05
8 *494:D *494:CLK 5.04829e-06
9 *494:D *198:14 0
10 *494:D *300:48 8.6027e-05
*RES
1 *358:X *494:D 40.4652 
*END

*D_NET *18 0.00179555
*CONN
*I *495:D I *D sky130_fd_sc_hd__dfrtp_1
*I *362:Y O *D sky130_fd_sc_hd__nor2_1
*CAP
1 *495:D 0.000600179
2 *362:Y 0.000600179
3 *495:D *358:B 7.34948e-06
4 *495:D *360:A 0.000114584
5 *495:D *360:B 0.000232069
6 *495:D *360:C 6.11359e-06
7 *495:D *361:B 0.000116913
8 *495:D *199:6 0.000118166
*RES
1 *362:Y *495:D 43.8089 
*END

*D_NET *19 0.000613259
*CONN
*I *518:D I *D sky130_fd_sc_hd__dfrtp_1
*I *338:Y O *D sky130_fd_sc_hd__nor2_1
*CAP
1 *518:D 0.000205758
2 *338:Y 0.000205758
3 *518:D *518:CLK 0
4 *518:D *226:39 6.46815e-05
5 *518:D *293:47 0.000137061
*RES
1 *338:Y *518:D 33.3757 
*END

*D_NET *20 0.00266616
*CONN
*I *314:B1 I *D sky130_fd_sc_hd__a22o_1
*I *548:D I *D sky130_fd_sc_hd__dfrtp_1
*I *316:A2 I *D sky130_fd_sc_hd__a22o_1
*I *313:Y O *D sky130_fd_sc_hd__inv_1
*CAP
1 *314:B1 0.000306
2 *548:D 2.70095e-05
3 *316:A2 0.000157791
4 *313:Y 0.000148698
5 *20:19 0.000481204
6 *20:8 0.000454683
7 *314:B1 *314:B2 1.21985e-05
8 *314:B1 *422:B 1.91246e-05
9 *314:B1 *429:B1 0
10 *314:B1 *548:CLK 5.23991e-05
11 *314:B1 *147:15 0
12 *314:B1 *286:10 2.02035e-05
13 *314:B1 *293:77 0
14 *316:A2 *258:61 0.000566847
15 *548:D *548:CLK 2.58616e-05
16 *20:8 *80:25 6.98258e-05
17 *20:8 *80:33 3.20544e-05
18 *20:8 *258:37 0.000137162
19 *20:8 *258:61 0.000104639
20 *20:19 *314:B2 5.04597e-05
*RES
1 *313:Y *20:8 14.1562 
2 *20:8 *316:A2 15.5186 
3 *20:8 *20:19 7.993 
4 *20:19 *548:D 14.4725 
5 *20:19 *314:B1 24.583 
*END

*D_NET *21 0.000400232
*CONN
*I *424:A1 I *D sky130_fd_sc_hd__mux2_2
*I *478:SUM O *D sky130_fd_sc_hd__ha_1
*CAP
1 *424:A1 0.000165521
2 *478:SUM 0.000165521
3 *424:A1 *425:B1 4.76347e-05
4 *424:A1 *478:B 1.21967e-05
5 *424:A1 *527:CLK 9.35753e-06
*RES
1 *478:SUM *424:A1 31.2994 
*END

*D_NET *22 0.00223578
*CONN
*I *420:A I *D sky130_fd_sc_hd__nor2_1
*I *309:A3 I *D sky130_fd_sc_hd__a32o_1
*I *312:B I *D sky130_fd_sc_hd__nand2_1
*I *479:COUT O *D sky130_fd_sc_hd__ha_1
*CAP
1 *420:A 0.00021661
2 *309:A3 0
3 *312:B 0.000247025
4 *479:COUT 0.000444204
5 *22:10 0.000368494
6 *22:8 0.000782283
7 *312:B *312:A 4.80635e-06
8 *312:B *541:CLK 0
9 *312:B *80:25 0
10 *312:B *263:20 6.9815e-05
11 *312:B *263:24 4.81015e-05
12 *312:B *286:21 0
13 *312:B *290:20 1.41976e-05
14 *312:B *293:169 0
15 *22:8 *297:33 4.02444e-05
16 *22:10 *541:CLK 0
17 *22:10 *293:67 0
18 *22:10 *293:169 0
*RES
1 *479:COUT *22:8 20.0186 
2 *22:8 *22:10 2.6625 
3 *22:10 *312:B 20.0956 
4 *22:10 *309:A3 13.7491 
5 *22:8 *420:A 18.7961 
*END

*D_NET *23 0.00048988
*CONN
*I *426:A1 I *D sky130_fd_sc_hd__mux2_2
*I *479:SUM O *D sky130_fd_sc_hd__ha_1
*CAP
1 *426:A1 0.000150709
2 *479:SUM 0.000150709
3 *426:A1 *427:A1 5.66363e-05
4 *426:A1 *479:A 1.41307e-05
5 *426:A1 *147:36 0
6 *426:A1 *246:12 0.000117694
*RES
1 *479:SUM *426:A1 31.2994 
*END

*D_NET *24 0.000380483
*CONN
*I *368:A1 I *D sky130_fd_sc_hd__mux2_2
*I *480:SUM O *D sky130_fd_sc_hd__ha_1
*CAP
1 *368:A1 7.58949e-05
2 *480:SUM 7.58949e-05
3 *368:A1 *367:B2 5.66868e-06
4 *368:A1 *115:25 5.39463e-05
5 *368:A1 *213:21 0.000169078
6 *368:A1 *289:53 0
*RES
1 *480:SUM *368:A1 30.576 
*END

*D_NET *25 0.00305645
*CONN
*I *364:A I *D sky130_fd_sc_hd__nor2_1
*I *330:B I *D sky130_fd_sc_hd__nand2_1
*I *323:C I *D sky130_fd_sc_hd__nand3_1
*I *481:COUT O *D sky130_fd_sc_hd__ha_1
*CAP
1 *364:A 0.000222536
2 *330:B 4.98157e-05
3 *323:C 0.000163446
4 *481:COUT 0.000648666
5 *25:8 0.000639391
6 *323:C *323:B 0.000164829
7 *323:C *324:B 1.92172e-05
8 *323:C *518:RESET_B 0.000115934
9 *323:C *520:RESET_B 0.000250814
10 *323:C *520:CLK 2.48716e-05
11 *323:C *115:10 0.000192431
12 *323:C *289:10 4.87198e-05
13 *330:B *330:A 8.36586e-06
14 *330:B *331:B1 2.16355e-05
15 *330:B *370:A1 6.08467e-05
16 *330:B *520:CLK 1.45799e-05
17 *330:B *115:10 4.06342e-05
18 *364:A *365:A1 7.72722e-05
19 *364:A *481:B 0
20 *364:A *498:RESET_B 0.000168319
21 *364:A *212:14 8.62625e-06
22 *364:A *298:167 0
23 *25:8 *370:A1 0.000110458
24 *25:8 *481:B 5.03748e-06
*RES
1 *481:COUT *25:8 20.0186 
2 *25:8 *323:C 21.5663 
3 *25:8 *330:B 15.474 
4 *481:COUT *364:A 33.791 
*END

*D_NET *26 0.000649049
*CONN
*I *370:A1 I *D sky130_fd_sc_hd__mux2_2
*I *481:SUM O *D sky130_fd_sc_hd__ha_1
*CAP
1 *370:A1 0.000189226
2 *481:SUM 0.000189226
3 *370:A1 *331:B1 2.77625e-06
4 *370:A1 *372:B 6.94431e-05
5 *370:A1 *289:14 1.88422e-05
6 *370:A1 *289:38 8.23171e-06
7 *330:B *370:A1 6.08467e-05
8 *25:8 *370:A1 0.000110458
*RES
1 *481:SUM *370:A1 22.7422 
*END

*D_NET *27 0.00094419
*CONN
*I *351:A I *D sky130_fd_sc_hd__nor3_1
*I *482:A I *D sky130_fd_sc_hd__ha_1
*I *348:Y O *D sky130_fd_sc_hd__inv_1
*CAP
1 *351:A 1.82075e-05
2 *482:A 7.33632e-05
3 *348:Y 8.63132e-05
4 *27:12 0.000177884
5 *351:A *351:C 6.50727e-05
6 *482:A *335:D 1.37189e-05
7 *482:A *351:B 0.000162739
8 *482:A *351:C 0.000110297
9 *482:A *482:B 6.36477e-05
10 *27:12 *343:B 0.000122083
11 *27:12 *343:C 3.25751e-05
12 *27:12 *349:A 1.82895e-05
*RES
1 *348:Y *27:12 20.9425 
2 *27:12 *482:A 12.191 
3 *27:12 *351:A 9.97254 
*END

*D_NET *28 0.000966062
*CONN
*I *351:B I *D sky130_fd_sc_hd__nor3_1
*I *482:B I *D sky130_fd_sc_hd__ha_1
*I *349:Y O *D sky130_fd_sc_hd__inv_1
*CAP
1 *351:B 3.61104e-05
2 *482:B 4.93173e-05
3 *349:Y 0.000112273
4 *28:12 0.000197701
5 *351:B *105:10 0.000100396
6 *482:B *105:10 0.000217873
7 *28:12 *340:B_N 0
8 *28:12 *343:B 1.49697e-05
9 *28:12 *349:A 1.10348e-05
10 *28:12 *105:10 0
11 *482:A *351:B 0.000162739
12 *482:A *482:B 6.36477e-05
*RES
1 *349:Y *28:12 20.5272 
2 *28:12 *482:B 11.6364 
3 *28:12 *351:B 11.0817 
*END

*D_NET *29 0.000954783
*CONN
*I *335:D I *D sky130_fd_sc_hd__nand4b_1
*I *482:COUT O *D sky130_fd_sc_hd__ha_1
*CAP
1 *335:D 0.00036735
2 *482:COUT 0.00036735
3 *335:D *335:B 5.04829e-06
4 *335:D *335:C 7.74853e-06
5 *335:D *351:C 2.57847e-05
6 *335:D *106:10 3.56119e-05
7 *335:D *197:46 0.00013217
8 *482:A *335:D 1.37189e-05
*RES
1 *482:COUT *335:D 36.1969 
*END

*D_NET *30 0.000795573
*CONN
*I *340:B_N I *D sky130_fd_sc_hd__nor2b_1
*I *482:SUM O *D sky130_fd_sc_hd__ha_1
*CAP
1 *340:B_N 0.000351305
2 *482:SUM 0.000351305
3 *340:B_N *105:10 5.22654e-06
4 *340:B_N *296:165 0
5 *488:D *340:B_N 8.77361e-05
6 *28:12 *340:B_N 0
*RES
1 *482:SUM *340:B_N 36.8048 
*END

*D_NET *31 0.0022841
*CONN
*I *346:C I *D sky130_fd_sc_hd__nand3_1
*I *353:B I *D sky130_fd_sc_hd__nand2_1
*I *341:B I *D sky130_fd_sc_hd__xnor2_1
*I *483:COUT O *D sky130_fd_sc_hd__ha_1
*CAP
1 *346:C 0.000255868
2 *353:B 9.22535e-05
3 *341:B 0
4 *483:COUT 0.000246017
5 *31:21 0.000544382
6 *31:10 0.000442277
7 *346:C *336:B 1.47046e-05
8 *346:C *350:A 6.46815e-05
9 *346:C *350:B 1.10656e-05
10 *346:C *353:A 1.78477e-05
11 *346:C *104:8 2.58616e-05
12 *346:C *194:27 0.00014006
13 *353:B *353:A 5.14506e-05
14 *31:10 *341:A 0
15 *31:10 *342:B 8.36615e-05
16 *31:10 *483:A 1.41976e-05
17 *31:10 *488:RESET_B 0
18 *31:10 *191:25 3.67528e-06
19 *31:10 *192:10 0
20 *31:10 *293:106 1.04109e-06
21 *31:10 *293:119 9.38506e-05
22 *31:21 *341:A 0
23 *31:21 *350:C 8.36586e-06
24 *31:21 *351:C 3.63328e-05
25 *31:21 *293:119 0.000136502
*RES
1 *483:COUT *31:10 19.7659 
2 *31:10 *341:B 13.7491 
3 *31:10 *31:21 10.4845 
4 *31:21 *353:B 11.6605 
5 *31:21 *346:C 17.4235 
*END

*D_NET *32 0.00471077
*CONN
*I *410:A I *D sky130_fd_sc_hd__nand2_1
*I *318:B I *D sky130_fd_sc_hd__nand3_2
*I *400:B I *D sky130_fd_sc_hd__nand2_1
*I *394:B I *D sky130_fd_sc_hd__nand3b_1
*I *484:COUT O *D sky130_fd_sc_hd__ha_4
*CAP
1 *410:A 0.000587542
2 *318:B 1.05723e-05
3 *400:B 6.58709e-05
4 *394:B 0
5 *484:COUT 0
6 *32:23 0.000188574
7 *32:12 0.000846794
8 *32:4 0.00132221
9 *318:B *130:10 2.15348e-05
10 *318:B *232:35 6.50727e-05
11 *400:B *397:B 0
12 *400:B *401:B1 3.14978e-05
13 *400:B *85:6 7.6719e-06
14 *400:B *130:10 0.000222149
15 *400:B *232:35 2.11517e-05
16 *400:B *232:42 6.08467e-05
17 *410:A *410:B 5.85747e-06
18 *410:A *411:B 6.93887e-05
19 *410:A *413:B1 8.77364e-05
20 *410:A *415:B 0.00015123
21 *410:A *229:50 1.03403e-05
22 *410:A *232:10 8.859e-05
23 *410:A *285:26 3.35199e-05
24 *410:A *298:101 0.000148763
25 *32:12 *318:C 0
26 *32:12 *394:C 1.07248e-05
27 *32:12 *396:A2 0
28 *32:12 *408:A 0.000149852
29 *32:12 *484:A 0.000211319
30 *32:12 *228:10 0
31 *32:12 *229:58 0
32 *32:12 *230:28 6.27718e-05
33 *32:23 *318:C 0
34 *32:23 *394:C 0.000210445
35 *32:23 *85:47 1.87469e-05
*RES
1 *484:COUT *32:4 9.24915 
2 *32:4 *32:12 21.2149 
3 *32:12 *394:B 13.7491 
4 *32:12 *32:23 8.40826 
5 *32:23 *400:B 12.7938 
6 *32:23 *318:B 9.97254 
7 *32:4 *410:A 30.5468 
*END

*D_NET *33 0.000545648
*CONN
*I *408:A I *D sky130_fd_sc_hd__nand2_1
*I *484:SUM O *D sky130_fd_sc_hd__ha_4
*CAP
1 *408:A 0.000185462
2 *484:SUM 0.000185462
3 *408:A *409:A1 2.48716e-05
4 *32:12 *408:A 0.000149852
*RES
1 *484:SUM *408:A 31.4388 
*END

*D_NET *34 0.0030387
*CONN
*I *307:C I *D sky130_fd_sc_hd__and3_1
*I *467:B_N I *D sky130_fd_sc_hd__nor2b_1
*I *468:B1 I *D sky130_fd_sc_hd__a21oi_1
*I *485:COUT O *D sky130_fd_sc_hd__ha_1
*CAP
1 *307:C 0.000128955
2 *467:B_N 9.94535e-06
3 *468:B1 7.33282e-05
4 *485:COUT 0.000305222
5 *34:16 0.000334602
6 *34:10 0.000685505
7 *307:C *474:B1 0.000201959
8 *467:B_N *467:A 4.65954e-06
9 *467:B_N *468:A2 1.05106e-05
10 *468:B1 *468:A2 4.88171e-05
11 *468:B1 *469:C1 1.61631e-05
12 *468:B1 *170:23 3.75217e-05
13 *468:B1 *173:12 8.07194e-05
14 *468:B1 *261:22 1.16654e-05
15 *34:10 *471:A 2.39287e-05
16 *34:10 *474:A3 0.000143563
17 *34:10 *173:23 7.44607e-05
18 *34:10 *173:40 0.000299095
19 *34:16 *470:A2 5.56367e-05
20 *34:16 *470:A3 4.9933e-05
21 *34:16 *173:12 0.000141714
22 *34:16 *173:23 0.000250845
23 *34:16 *261:8 2.49771e-05
24 *34:16 *261:22 2.49771e-05
*RES
1 *485:COUT *34:10 22.3968 
2 *34:10 *34:16 13.5657 
3 *34:16 *468:B1 12.2151 
4 *34:16 *467:B_N 9.82786 
5 *34:10 *307:C 15.9796 
*END

*D_NET *35 0.000368867
*CONN
*I *464:B I *D sky130_fd_sc_hd__nand3_1
*I *485:SUM O *D sky130_fd_sc_hd__ha_1
*CAP
1 *464:B 7.77089e-05
2 *485:SUM 7.77089e-05
3 *464:B *285:32 0.000148767
4 *464:B *285:42 6.46815e-05
*RES
1 *485:SUM *464:B 20.8855 
*END

*D_NET *36 0.00037042
*CONN
*I *496:D I *D sky130_fd_sc_hd__dfrtp_1
*I *367:X O *D sky130_fd_sc_hd__a22o_1
*CAP
1 *496:D 0.000147883
2 *367:X 0.000147883
3 *496:D *496:RESET_B 4.27003e-05
4 *496:D *496:CLK 3.19547e-05
*RES
1 *367:X *496:D 31.1629 
*END

*D_NET *37 0.00111676
*CONN
*I *497:D I *D sky130_fd_sc_hd__dfrtp_1
*I *369:X O *D sky130_fd_sc_hd__a22o_1
*CAP
1 *497:D 0.000416472
2 *369:X 0.000416472
3 *497:D *369:B2 0.000283814
4 *497:D *288:59 0
*RES
1 *369:X *497:D 34.9058 
*END

*D_NET *38 0.000310314
*CONN
*I *498:D I *D sky130_fd_sc_hd__dfrtp_1
*I *371:X O *D sky130_fd_sc_hd__a22o_1
*CAP
1 *498:D 9.46623e-05
2 *371:X 9.46623e-05
3 *498:D *371:A1 1.0759e-05
4 *498:D *214:8 8.43687e-05
5 *498:D *298:167 2.58616e-05
*RES
1 *371:X *498:D 21.4642 
*END

*D_NET *39 0.000847145
*CONN
*I *499:D I *D sky130_fd_sc_hd__dfrtp_1
*I *373:X O *D sky130_fd_sc_hd__mux2_2
*CAP
1 *499:D 0.000328234
2 *373:X 0.000328234
3 *499:D *373:A0 3.072e-06
4 *499:D *386:S 1.94615e-05
5 *499:D *499:CLK 0.000131228
6 *499:D *500:RESET_B 3.51584e-05
7 *499:D *216:23 1.75637e-06
*RES
1 *373:X *499:D 34.2412 
*END

*D_NET *40 0.000453405
*CONN
*I *500:D I *D sky130_fd_sc_hd__dfrtp_1
*I *374:X O *D sky130_fd_sc_hd__mux2_2
*CAP
1 *500:D 0.000223028
2 *374:X 0.000223028
3 *500:D *374:S 0
4 *500:D *500:CLK 7.34948e-06
5 *500:D *297:322 0
*RES
1 *374:X *500:D 32.8239 
*END

*D_NET *41 0.00068107
*CONN
*I *501:D I *D sky130_fd_sc_hd__dfrtp_1
*I *375:X O *D sky130_fd_sc_hd__mux2_2
*CAP
1 *501:D 0.00029802
2 *375:X 0.00029802
3 *501:D *374:S 0
4 *501:D *500:CLK 0
5 *501:D *301:35 8.50305e-05
*RES
1 *375:X *501:D 35.3182 
*END

*D_NET *42 0.00095232
*CONN
*I *502:D I *D sky130_fd_sc_hd__dfrtp_1
*I *376:X O *D sky130_fd_sc_hd__mux2_2
*CAP
1 *502:D 0.000439928
2 *376:X 0.000439928
3 *502:D *502:RESET_B 2.23519e-05
4 *502:D *118:70 2.16355e-05
5 *502:D *218:24 2.84758e-05
*RES
1 *376:X *502:D 29.2287 
*END

*D_NET *43 0.00150766
*CONN
*I *503:D I *D sky130_fd_sc_hd__dfrtp_1
*I *377:X O *D sky130_fd_sc_hd__mux2_2
*CAP
1 *503:D 0.000512373
2 *377:X 0.000512373
3 *503:D *384:A1 0.000257653
4 *503:D *385:A0 0
5 *503:D *507:D 0.000168319
6 *503:D *508:RESET_B 0
7 *503:D *510:RESET_B 5.69404e-05
8 *503:D *632:A 0
9 *503:D *635:A 0
*RES
1 *377:X *503:D 40.1619 
*END

*D_NET *44 0.000884716
*CONN
*I *504:D I *D sky130_fd_sc_hd__dfrtp_1
*I *378:X O *D sky130_fd_sc_hd__mux2_2
*CAP
1 *504:D 0.000389342
2 *378:X 0.000389342
3 *504:D *118:41 0.000106032
4 *504:D *215:10 0
*RES
1 *378:X *504:D 34.3512 
*END

*D_NET *45 0.000397243
*CONN
*I *505:D I *D sky130_fd_sc_hd__dfrtp_1
*I *379:X O *D sky130_fd_sc_hd__mux2_2
*CAP
1 *505:D 0.000113761
2 *379:X 0.000113761
3 *505:D *378:A0 6.28168e-05
4 *505:D *203:10 3.00073e-05
5 *505:D *221:23 6.5562e-05
6 *505:D *301:105 1.13359e-05
*RES
1 *379:X *505:D 30.4689 
*END

*D_NET *46 0.00184588
*CONN
*I *506:D I *D sky130_fd_sc_hd__dfrtp_1
*I *381:Y O *D sky130_fd_sc_hd__o21ai_0
*CAP
1 *506:D 0.000375934
2 *381:Y 0.000375934
3 *506:D *331:A1 0.000111722
4 *506:D *381:A2 0.000380925
5 *506:D *381:B1 0.000355901
6 *506:D *506:RESET_B 0.000103441
7 *506:D *222:8 0.000136972
8 *506:D *222:27 5.04829e-06
*RES
1 *381:Y *506:D 41.164 
*END

*D_NET *47 0.00129162
*CONN
*I *507:D I *D sky130_fd_sc_hd__dfrtp_1
*I *384:X O *D sky130_fd_sc_hd__mux2_2
*CAP
1 *507:D 0.000337328
2 *384:X 0.000337328
3 *507:D *384:A1 0.000165657
4 *507:D *385:A1 6.32961e-05
5 *507:D *118:60 0.000107496
6 *507:D *293:151 0.000112193
7 *503:D *507:D 0.000168319
*RES
1 *384:X *507:D 38.4981 
*END

*D_NET *48 0.000413244
*CONN
*I *508:D I *D sky130_fd_sc_hd__dfrtp_1
*I *385:X O *D sky130_fd_sc_hd__mux2_2
*CAP
1 *508:D 0.000118705
2 *385:X 0.000118705
3 *508:D *387:S 0
4 *508:D *508:CLK 0.000164574
5 *508:D *635:A 1.12605e-05
*RES
1 *385:X *508:D 30.9913 
*END

*D_NET *49 0.0015854
*CONN
*I *509:D I *D sky130_fd_sc_hd__dfrtp_1
*I *386:X O *D sky130_fd_sc_hd__mux2_2
*CAP
1 *509:D 0.000630088
2 *386:X 0.000630088
3 *509:D *386:A0 4.89392e-05
4 *509:D *509:CLK 7.39214e-06
5 *509:D *633:A 0.000268896
*RES
1 *386:X *509:D 28.7283 
*END

*D_NET *50 0.000393042
*CONN
*I *510:D I *D sky130_fd_sc_hd__dfrtp_1
*I *387:X O *D sky130_fd_sc_hd__mux2_2
*CAP
1 *510:D 0.000183261
2 *387:X 0.000183261
3 *510:D *510:CLK 2.652e-05
*RES
1 *387:X *510:D 31.0235 
*END

*D_NET *51 0.00114255
*CONN
*I *511:D I *D sky130_fd_sc_hd__dfrtp_1
*I *388:X O *D sky130_fd_sc_hd__mux2_2
*CAP
1 *511:D 0.000311193
2 *388:X 0.000311193
3 *511:D *510:CLK 8.62474e-06
4 *511:D *511:CLK 8.61152e-06
5 *511:D *301:18 0.000464663
6 *511:D *301:20 3.82612e-05
*RES
1 *388:X *511:D 36.1515 
*END

*D_NET *52 0.000393618
*CONN
*I *512:D I *D sky130_fd_sc_hd__dfrtp_1
*I *389:X O *D sky130_fd_sc_hd__mux2_2
*CAP
1 *512:D 0.000170488
2 *389:X 0.000170488
3 *512:D *377:A0 2.32594e-05
4 *512:D *389:A0 0
5 *512:D *512:CLK 2.93828e-05
*RES
1 *389:X *512:D 31.0235 
*END

*D_NET *53 0.000642225
*CONN
*I *513:D I *D sky130_fd_sc_hd__dfrtp_1
*I *390:X O *D sky130_fd_sc_hd__mux2_2
*CAP
1 *513:D 0.000185812
2 *390:X 0.000185812
3 *513:D *503:RESET_B 0.000160047
4 *513:D *118:29 6.77815e-05
5 *513:D *118:31 2.48149e-05
6 *513:D *118:37 1.79581e-05
7 *513:D *297:130 0
*RES
1 *390:X *513:D 32.8239 
*END

*D_NET *54 0.000679248
*CONN
*I *514:D I *D sky130_fd_sc_hd__dfrtp_1
*I *391:X O *D sky130_fd_sc_hd__mux2_2
*CAP
1 *514:D 0.000186995
2 *391:X 0.000186995
3 *514:D rx_data[0] 0
4 *514:D *377:S 0.000103415
5 *514:D *379:A0 0.000201843
*RES
1 *391:X *514:D 31.609 
*END

*D_NET *55 0.00171539
*CONN
*I *515:D I *D sky130_fd_sc_hd__dfrtp_1
*I *393:Y O *D sky130_fd_sc_hd__o21ai_0
*CAP
1 *515:D 0.000776777
2 *393:Y 0.000776777
3 *515:D *382:C 1.65351e-05
4 *515:D *383:A 6.61414e-05
5 *515:D *393:A2 6.3657e-05
6 *515:D *393:B1 1.55025e-05
*RES
1 *393:Y *515:D 30.3379 
*END

*D_NET *56 0.0019063
*CONN
*I *523:D I *D sky130_fd_sc_hd__dfrtp_1
*I *405:X O *D sky130_fd_sc_hd__mux2_1
*CAP
1 *523:D 0.00069
2 *405:X 0.00069
3 *523:D *396:B1 6.27782e-05
4 *523:D *409:A1 1.2535e-05
5 *523:D *416:C 2.89766e-05
6 *523:D *484:A 4.22198e-05
7 *523:D *523:RESET_B 9.81956e-05
8 *523:D *528:RESET_B 7.48633e-05
9 *523:D *231:21 3.11587e-05
10 *523:D *293:187 1.16659e-05
11 *523:D *299:26 0.000163912
*RES
1 *405:X *523:D 45.2616 
*END

*D_NET *57 0.000387513
*CONN
*I *524:D I *D sky130_fd_sc_hd__dfrtp_1
*I *409:Y O *D sky130_fd_sc_hd__mux2i_1
*CAP
1 *524:D 0.000140988
2 *409:Y 0.000140988
3 *524:D *409:A0 9.75356e-05
4 *524:D *528:RESET_B 0
5 *524:D *293:67 8.00203e-06
*RES
1 *409:Y *524:D 31.0235 
*END

*D_NET *58 0.000637567
*CONN
*I *525:D I *D sky130_fd_sc_hd__dfrtp_1
*I *415:Y O *D sky130_fd_sc_hd__nand2_1
*CAP
1 *525:D 0.000243722
2 *415:Y 0.000243722
3 *525:D *413:B2 3.24737e-06
4 *525:D *415:B 1.83992e-05
5 *525:D *416:A 1.03403e-05
6 *525:D *232:10 0.000118136
*RES
1 *415:Y *525:D 32.1327 
*END

*D_NET *59 0.00152411
*CONN
*I *526:D I *D sky130_fd_sc_hd__dfrtp_1
*I *419:Y O *D sky130_fd_sc_hd__o2bb2ai_1
*CAP
1 *526:D 0.000392769
2 *419:Y 0.000392769
3 *526:D *324:A 0.000179352
4 *526:D *526:RESET_B 0.000498373
5 *526:D *526:CLK 6.08467e-05
*RES
1 *419:Y *526:D 28.8429 
*END

*D_NET *60 0.000953571
*CONN
*I *527:D I *D sky130_fd_sc_hd__dfrtp_1
*I *423:X O *D sky130_fd_sc_hd__a22o_2
*CAP
1 *527:D 0.000312725
2 *423:X 0.000312725
3 *527:D *423:A2 3.70659e-05
4 *527:D *423:B2 1.04604e-05
5 *527:D *424:S 5.89592e-05
6 *527:D *147:36 0.000118485
7 *527:D *245:16 9.04224e-05
8 *527:D *286:81 1.27269e-05
*RES
1 *423:X *527:D 35.2111 
*END

*D_NET *61 0.000798573
*CONN
*I *528:D I *D sky130_fd_sc_hd__dfrtp_1
*I *425:X O *D sky130_fd_sc_hd__a22o_2
*CAP
1 *528:D 0.000293597
2 *425:X 0.000293597
3 *528:D *425:B2 7.89103e-06
4 *528:D *490:RESET_B 0.00012568
5 *528:D *245:16 7.78069e-05
*RES
1 *425:X *528:D 33.242 
*END

*D_NET *62 0.00190158
*CONN
*I *529:D I *D sky130_fd_sc_hd__dfrtp_1
*I *427:X O *D sky130_fd_sc_hd__a22o_2
*CAP
1 *529:D 0.000648161
2 *427:X 0.000648161
3 *529:D *427:A1 0.000119497
4 *529:D *427:A2 4.00096e-05
5 *529:D *427:B1 0.000198742
6 *529:D *427:B2 3.31733e-05
7 *529:D *529:RESET_B 0.000143864
8 *529:D *147:15 0
9 *529:D *147:36 0
10 *529:D *246:12 5.12418e-05
11 *529:D *296:84 1.87269e-05
*RES
1 *427:X *529:D 45.9528 
*END

*D_NET *63 0.000945387
*CONN
*I *530:D I *D sky130_fd_sc_hd__dfrtp_1
*I *433:Y O *D sky130_fd_sc_hd__a21oi_2
*CAP
1 *530:D 0.000352061
2 *433:Y 0.000352061
3 *530:D *433:A1 7.01935e-06
4 *530:D *433:A2 7.30804e-05
5 *530:D *454:A2 0.000161165
*RES
1 *433:Y *530:D 36.0066 
*END

*D_NET *64 0.000650933
*CONN
*I *531:D I *D sky130_fd_sc_hd__dfrtp_1
*I *436:Y O *D sky130_fd_sc_hd__a21oi_2
*CAP
1 *531:D 0.000137884
2 *436:Y 0.000137884
3 *531:D *436:A2 0.000164829
4 *531:D *439:A2 0
5 *531:D *531:RESET_B 0.000143017
6 *531:D *284:44 6.22703e-05
7 *531:D *284:54 5.04829e-06
*RES
1 *436:Y *531:D 31.9934 
*END

*D_NET *65 0.000602875
*CONN
*I *532:D I *D sky130_fd_sc_hd__dfrtp_1
*I *439:Y O *D sky130_fd_sc_hd__a21oi_1
*CAP
1 *532:D 0.000188965
2 *439:Y 0.000188965
3 *532:D *439:A2 5.35113e-05
4 *532:D *439:B1 0.000118166
5 *532:D *292:20 5.32678e-05
*RES
1 *439:Y *532:D 32.2693 
*END

*D_NET *66 0.000870809
*CONN
*I *533:D I *D sky130_fd_sc_hd__dfrtp_1
*I *442:Y O *D sky130_fd_sc_hd__a21oi_1
*CAP
1 *533:D 0.000268827
2 *442:Y 0.000268827
3 *533:D *440:A1 7.50872e-05
4 *533:D *444:A 1.07248e-05
5 *533:D *533:RESET_B 7.50872e-05
6 *533:D *292:22 0.000172255
*RES
1 *442:Y *533:D 33.0444 
*END

*D_NET *67 0.000653618
*CONN
*I *534:D I *D sky130_fd_sc_hd__dfrtp_1
*I *445:Y O *D sky130_fd_sc_hd__a21oi_1
*CAP
1 *534:D 0.000316723
2 *445:Y 0.000316723
3 *534:D *444:A 0
4 *534:D *445:A2 2.01727e-05
5 *534:D *292:28 0
*RES
1 *445:Y *534:D 35.3182 
*END

*D_NET *68 0.00126034
*CONN
*I *535:D I *D sky130_fd_sc_hd__dfrtp_1
*I *448:Y O *D sky130_fd_sc_hd__a21oi_1
*CAP
1 *535:D 0.000614093
2 *448:Y 0.000614093
3 *535:D *447:A 1.84293e-05
4 *535:D *447:B 3.62662e-06
5 *535:D *448:B1 1.00937e-05
6 *535:D *626:A 0
7 *535:D *627:A 0
*RES
1 *448:Y *535:D 29.7109 
*END

*D_NET *69 0.00057012
*CONN
*I *536:D I *D sky130_fd_sc_hd__dfrtp_1
*I *451:Y O *D sky130_fd_sc_hd__a21oi_1
*CAP
1 *536:D 0.000171039
2 *451:Y 0.000171039
3 *536:D *449:A0 0
4 *536:D *451:B1 0.000120962
5 *536:D *536:CLK 2.65667e-05
6 *536:D *253:12 2.65667e-05
7 *536:D *295:45 5.39463e-05
*RES
1 *451:Y *536:D 31.7469 
*END

*D_NET *70 0.00111056
*CONN
*I *537:D I *D sky130_fd_sc_hd__dfrtp_1
*I *454:Y O *D sky130_fd_sc_hd__o21ai_0
*CAP
1 *537:D 0.000451617
2 *454:Y 0.000451617
3 *537:D *537:RESET_B 1.58065e-05
4 *537:D *254:8 0.000191516
*RES
1 *454:Y *537:D 30.5067 
*END

*D_NET *71 0.000529609
*CONN
*I *542:D I *D sky130_fd_sc_hd__dfrtp_1
*I *462:Y O *D sky130_fd_sc_hd__o21ai_0
*CAP
1 *542:D 0.000196667
2 *462:Y 0.000196667
3 *542:D *542:CLK 0.000125395
4 *542:D *259:10 1.08799e-05
*RES
1 *462:Y *542:D 22.0188 
*END

*D_NET *72 0.00069559
*CONN
*I *543:D I *D sky130_fd_sc_hd__dfrtp_1
*I *465:Y O *D sky130_fd_sc_hd__o21ai_0
*CAP
1 *543:D 0.000281559
2 *465:Y 0.000281559
3 *543:D *409:S 0
4 *543:D *465:A1 1.00937e-05
5 *543:D *465:A2 0.000122378
6 *543:D *285:26 0
*RES
1 *465:Y *543:D 32.2721 
*END

*D_NET *73 0.00105255
*CONN
*I *544:D I *D sky130_fd_sc_hd__dfrtp_1
*I *470:X O *D sky130_fd_sc_hd__a32o_1
*CAP
1 *544:D 0.000290965
2 *470:X 0.000290965
3 *544:D *470:A1 0.000128126
4 *544:D *470:A2 0
5 *544:D *470:B1 0.000272078
6 *544:D *470:B2 7.04127e-05
*RES
1 *470:X *544:D 33.3813 
*END

*D_NET *74 0.00058915
*CONN
*I *545:D I *D sky130_fd_sc_hd__dfrtp_1
*I *474:X O *D sky130_fd_sc_hd__a32o_1
*CAP
1 *545:D 0.000199297
2 *474:X 0.000199297
3 *545:D *307:B 0.000161956
4 *545:D *545:CLK 2.85997e-05
*RES
1 *474:X *545:D 31.5781 
*END

*D_NET *75 0.00048127
*CONN
*I *547:D I *D sky130_fd_sc_hd__dfrtp_1
*I *477:Y O *D sky130_fd_sc_hd__o21ai_0
*CAP
1 *547:D 0.000100645
2 *477:Y 0.000100645
3 *547:D *311:B1 6.50727e-05
4 *547:D *475:S 6.31665e-05
5 *547:D *477:A2 0.000151741
*RES
1 *477:Y *547:D 30.8842 
*END

*D_NET *76 0.00116029
*CONN
*I *546:D I *D sky130_fd_sc_hd__dfstp_2
*I *363:X O *D sky130_fd_sc_hd__a211o_2
*CAP
1 *546:D 0.000430813
2 *363:X 0.000430813
3 *546:D tx_busy 0
4 *546:D *538:CLK 0.000171473
5 *546:D *287:16 0
6 *546:D *287:30 0.000127194
*RES
1 *363:X *546:D 37.1186 
*END

*D_NET *77 0.00156256
*CONN
*P tx_data[3] I
*I *305:A I *D sky130_fd_sc_hd__clkdlybuf4s50_1
*CAP
1 tx_data[3] 0.000781278
2 *305:A 0.000781278
3 *305:A *306:A 0
*RES
1 tx_data[3] *305:A 36.2495 
*END

*D_NET *78 0.00117242
*CONN
*P tx_data[2] I
*I *306:A I *D sky130_fd_sc_hd__clkdlybuf4s50_1
*CAP
1 tx_data[2] 0.000586208
2 *306:A 0.000586208
3 *305:A *306:A 0
*RES
1 tx_data[2] *306:A 29.4388 
*END

*D_NET *79 0.00179489
*CONN
*I *460:A1 I *D sky130_fd_sc_hd__o21ai_0
*I *308:B I *D sky130_fd_sc_hd__nand2_1
*I *307:X O *D sky130_fd_sc_hd__and3_1
*CAP
1 *460:A1 0
2 *308:B 9.68253e-05
3 *307:X 0.000332134
4 *79:20 0.00042896
5 *308:B *460:A2 0
6 *308:B *460:B1 0
7 *308:B *80:10 1.84293e-05
8 *79:20 *307:B 0.000110297
9 *79:20 *460:A2 1.92336e-05
10 *79:20 *460:B1 6.07648e-05
11 *79:20 *471:A 0.000215708
12 *79:20 *473:A2 3.96594e-05
13 *79:20 *473:B1 0.000202304
14 *79:20 *473:B2 8.71398e-05
15 *79:20 *474:A3 5.0187e-05
16 *79:20 *474:B1 2.29454e-05
17 *79:20 *261:22 0.000110306
*RES
1 *307:X *79:20 30.8973 
2 *79:20 *308:B 11.6605 
3 *79:20 *460:A1 9.24915 
*END

*D_NET *80 0.00578179
*CONN
*I *313:A I *D sky130_fd_sc_hd__inv_1
*I *311:A2 I *D sky130_fd_sc_hd__a22o_1
*I *476:C I *D sky130_fd_sc_hd__nand3_1
*I *309:B1 I *D sky130_fd_sc_hd__a32o_1
*I *308:Y O *D sky130_fd_sc_hd__nand2_1
*CAP
1 *313:A 0
2 *311:A2 0.000155592
3 *476:C 0.000237638
4 *309:B1 1.56384e-05
5 *308:Y 0.000607521
6 *80:33 0.000537637
7 *80:25 0.000726893
8 *80:10 0.00120565
9 *309:B1 *309:A1 3.85049e-05
10 *311:A2 *547:CLK 2.95757e-05
11 *311:A2 *255:62 4.88955e-05
12 *311:A2 *257:16 0.000110684
13 *311:A2 *290:22 0.000149643
14 *311:A2 *296:29 0.00017419
15 *476:C *311:A1 2.22788e-05
16 *476:C *311:B1 5.04829e-06
17 *476:C *538:SET_B 2.39511e-05
18 *476:C *235:34 8.62625e-06
19 *476:C *235:45 6.50586e-05
20 *476:C *255:10 0.000266846
21 *476:C *255:62 6.50727e-05
22 *476:C *257:16 6.23875e-05
23 *476:C *258:43 0
24 *80:10 *309:A1 4.66492e-05
25 *80:10 *309:B2 7.76234e-05
26 *80:10 *649:A 2.78509e-06
27 *80:10 *258:27 4.43897e-05
28 *80:25 *309:A1 8.89094e-05
29 *80:25 *548:RESET_B 9.16599e-05
30 *80:25 *645:A 2.44579e-05
31 *80:25 *258:37 0.000132777
32 *80:25 *263:8 0.000365952
33 *80:25 *263:20 1.03986e-05
34 *80:25 *286:21 0
35 *80:25 *290:20 0
36 *80:25 *290:22 0
37 *80:33 *258:37 3.20407e-05
38 *80:33 *258:43 0.000186508
39 *80:33 *290:22 0
40 *308:B *80:10 1.84293e-05
41 *312:B *80:25 0
42 *20:8 *80:25 6.98258e-05
43 *20:8 *80:33 3.20544e-05
*RES
1 *308:Y *80:10 19.5937 
2 *80:10 *309:B1 9.69524 
3 *80:10 *80:25 26.4384 
4 *80:25 *80:33 13.288 
5 *80:33 *476:C 25.5467 
6 *80:33 *311:A2 24.2687 
7 *80:25 *313:A 9.24915 
*END

*D_NET *81 0.00166563
*CONN
*I *311:B1 I *D sky130_fd_sc_hd__a22o_1
*I *475:A1 I *D sky130_fd_sc_hd__mux2i_1
*I *310:Y O *D sky130_fd_sc_hd__nor2b_1
*CAP
1 *311:B1 0.000305728
2 *475:A1 0.000195353
3 *310:Y 0
4 *81:6 0.000501081
5 *311:B1 *311:A1 3.72827e-05
6 *311:B1 *315:B 0
7 *311:B1 *476:A 6.92705e-05
8 *311:B1 *477:B1 1.41291e-05
9 *311:B1 *235:34 0.000101118
10 *311:B1 *235:45 7.92757e-06
11 *311:B1 *258:43 4.0752e-05
12 *475:A1 *315:B 0
13 *475:A1 *475:A0 0.000192267
14 *475:A1 *477:A2 3.14978e-05
15 *475:A1 *235:21 7.45404e-05
16 *475:A1 *235:34 2.4562e-05
17 *475:A1 *264:10 0
18 *476:C *311:B1 5.04829e-06
19 *547:D *311:B1 6.50727e-05
*RES
1 *310:Y *81:6 13.7491 
2 *81:6 *475:A1 20.0446 
3 *81:6 *311:B1 21.4889 
*END

*D_NET *82 0.000464046
*CONN
*I *314:A2 I *D sky130_fd_sc_hd__a22o_1
*I *312:Y O *D sky130_fd_sc_hd__nand2_1
*CAP
1 *314:A2 0.000126562
2 *312:Y 0.000126562
3 *314:A2 *263:24 2.16355e-05
4 *314:A2 *286:10 1.07248e-05
5 *314:A2 *286:21 0.000143032
6 *314:A2 *290:20 2.61857e-05
7 *314:A2 *290:22 9.34396e-06
*RES
1 *312:Y *314:A2 30.8842 
*END

*D_NET *83 0.00125781
*CONN
*I *429:A2 I *D sky130_fd_sc_hd__a211oi_4
*I *316:B1 I *D sky130_fd_sc_hd__a22o_1
*I *315:Y O *D sky130_fd_sc_hd__nand2b_1
*CAP
1 *429:A2 0.00010861
2 *316:B1 0
3 *315:Y 0.000267412
4 *83:10 0.000376022
5 *429:A2 *255:23 2.1667e-05
6 *429:A2 *255:34 0.000198334
7 *83:10 *546:SET_B 1.75625e-05
8 *83:10 *235:45 5.36586e-05
9 *83:10 *255:10 0.000101239
10 *83:10 *255:23 0.000113309
11 *538:D *83:10 0
*RES
1 *315:Y *83:10 20.1812 
2 *83:10 *316:B1 13.7491 
3 *83:10 *429:A2 17.6574 
*END

*D_NET *84 0.00210858
*CONN
*I *320:A1 I *D sky130_fd_sc_hd__o21ai_0
*I *338:A I *D sky130_fd_sc_hd__nor2_1
*I *419:B2 I *D sky130_fd_sc_hd__o2bb2ai_1
*I *317:Y O *D sky130_fd_sc_hd__inv_1
*CAP
1 *320:A1 0
2 *338:A 0.000146147
3 *419:B2 0.000237014
4 *317:Y 0.000369509
5 *84:22 0.000278642
6 *338:A *320:A2 2.74791e-05
7 *338:A *320:B1 0.000149654
8 *338:A *338:B 2.10465e-05
9 *338:A *85:53 1.1957e-05
10 *338:A *85:68 5.27799e-05
11 *338:A *229:109 0.000159016
12 *338:A *302:10 7.20028e-05
13 *338:A *302:60 0.000163359
14 *419:B2 *324:A 2.45858e-05
15 *419:B2 *419:A1_N 4.66889e-05
16 *419:B2 *419:A2_N 2.41827e-05
17 *84:22 *317:A 3.19445e-05
18 *84:22 *320:A2 1.53986e-05
19 *84:22 *320:B1 0.000178241
20 *84:22 *324:A 9.89315e-05
*RES
1 *317:Y *419:B2 22.272 
2 *317:Y *84:22 13.7704 
3 *84:22 *338:A 24.8233 
4 *84:22 *320:A1 9.24915 
*END

*D_NET *85 0.00767866
*CONN
*I *320:A2 I *D sky130_fd_sc_hd__o21ai_0
*I *338:B I *D sky130_fd_sc_hd__nor2_1
*I *334:A1 I *D sky130_fd_sc_hd__o21ai_0
*I *329:A I *D sky130_fd_sc_hd__nor3b_1
*I *326:A2 I *D sky130_fd_sc_hd__o21ai_0
*I *393:A1 I *D sky130_fd_sc_hd__o21ai_0
*I *383:A I *D sky130_fd_sc_hd__nor2_2
*I *318:Y O *D sky130_fd_sc_hd__nand3_2
*CAP
1 *320:A2 0.000199694
2 *338:B 3.08578e-05
3 *334:A1 0.000447282
4 *329:A 0.000113437
5 *326:A2 2.09702e-05
6 *393:A1 0
7 *383:A 0.0002411
8 *318:Y 0
9 *85:68 0.00057157
10 *85:53 0.000397082
11 *85:47 0.000678518
12 *85:14 0.000578482
13 *85:6 0.000787759
14 *85:4 0.000718016
15 *320:A2 *302:10 0.000123126
16 *326:A2 *327:B1 0
17 *329:A *94:12 3.00829e-05
18 *329:A *229:109 0.000253399
19 *334:A1 *331:A2 0.000242109
20 *334:A1 *333:A2 0.000112361
21 *334:A1 *334:B1 7.67734e-06
22 *334:A1 *226:39 5.36868e-05
23 *338:B *293:47 1.09013e-05
24 *383:A *382:C 0.000110458
25 *383:A *393:A2 5.04829e-06
26 *383:A *515:RESET_B 2.29386e-05
27 *383:A *297:109 8.72115e-06
28 *383:A *297:120 6.46137e-05
29 *85:6 *326:B1 0.000218567
30 *85:6 *327:A2 4.58907e-05
31 *85:6 *327:B1 5.09367e-05
32 *85:6 *401:A1 4.82966e-05
33 *85:6 *401:A2 0.000111722
34 *85:6 *401:B1 0.000120967
35 *85:6 *130:10 9.75148e-06
36 *85:6 *228:22 0.000144598
37 *85:6 *232:35 0.000107496
38 *85:14 *326:A1 1.44611e-05
39 *85:14 *327:A1 5.96936e-05
40 *85:14 *327:A2 6.53502e-05
41 *85:14 *327:B1 0.000165459
42 *85:14 *382:C 1.02917e-05
43 *85:14 *399:A_N 0
44 *85:14 *297:109 0
45 *85:47 *317:A 0
46 *85:47 *318:C 2.22342e-05
47 *85:47 *329:C_N 0
48 *85:47 *133:16 0
49 *85:47 *232:35 0.000113968
50 *85:47 *302:16 0.00014518
51 *85:53 *229:109 7.00638e-05
52 *85:53 *302:10 6.08467e-05
53 *85:53 *302:16 5.46384e-06
54 *85:53 *302:60 3.87022e-06
55 *85:68 *293:31 4.75721e-06
56 *85:68 *293:47 2.2506e-05
57 *85:68 *302:60 5.18062e-06
58 *338:A *320:A2 2.74791e-05
59 *338:A *338:B 2.10465e-05
60 *338:A *85:53 1.1957e-05
61 *338:A *85:68 5.27799e-05
62 *400:B *85:6 7.6719e-06
63 *515:D *383:A 6.61414e-05
64 *32:23 *85:47 1.87469e-05
65 *84:22 *320:A2 1.53986e-05
*RES
1 *318:Y *85:4 9.24915 
2 *85:4 *85:6 12.3701 
3 *85:6 *85:14 18.0629 
4 *85:14 *383:A 25.2386 
5 *85:14 *393:A1 9.24915 
6 *85:6 *326:A2 9.82786 
7 *85:4 *85:47 16.6778 
8 *85:47 *85:53 7.8887 
9 *85:53 *329:A 17.9931 
10 *85:53 *85:68 2.6625 
11 *85:68 *334:A1 21.8994 
12 *85:68 *338:B 14.7506 
13 *85:47 *320:A2 13.1796 
*END

*D_NET *86 0.00135142
*CONN
*P tx_data[1] I
*I *319:A I *D sky130_fd_sc_hd__clkdlybuf4s50_1
*CAP
1 tx_data[1] 0.000675711
2 *319:A 0.000675711
3 *319:A *629:A 0
*RES
1 tx_data[1] *319:A 31.6573 
*END

*D_NET *87 0.00113466
*CONN
*I *324:A I *D sky130_fd_sc_hd__nand2_1
*I *320:Y O *D sky130_fd_sc_hd__o21ai_0
*CAP
1 *324:A 0.00030854
2 *320:Y 0.00030854
3 *324:A *317:A 3.19445e-05
4 *324:A *419:A1_N 2.08133e-05
5 *324:A *419:A2_N 0.00016195
6 *419:B2 *324:A 2.45858e-05
7 *526:D *324:A 0.000179352
8 *84:22 *324:A 9.89315e-05
*RES
1 *320:Y *324:A 28.1677 
*END

*D_NET *88 0.00189889
*CONN
*P tx_data[0] I
*I *321:A I *D sky130_fd_sc_hd__clkdlybuf4s50_1
*CAP
1 tx_data[0] 0.000597019
2 *321:A 0.000597019
3 *321:A *453:B 5.96936e-05
4 *321:A *629:A 0.000427224
5 *321:A *292:63 0.000217937
*RES
1 tx_data[0] *321:A 34.2853 
*END

*D_NET *89 0.00133971
*CONN
*P rx I
*I *322:A I *D sky130_fd_sc_hd__clkdlybuf4s50_1
*CAP
1 rx 0.000669855
2 *322:A 0.000669855
*RES
1 rx *322:A 27.3915 
*END

*D_NET *90 0.00127388
*CONN
*I *324:B I *D sky130_fd_sc_hd__nand2_1
*I *323:Y O *D sky130_fd_sc_hd__nand3_1
*CAP
1 *324:B 0.000481469
2 *323:Y 0.000481469
3 *324:B *323:B 1.19856e-05
4 *324:B *395:A 0
5 *324:B *398:D 0
6 *324:B *419:B1 1.03594e-05
7 *324:B *518:RESET_B 0.00011818
8 *324:B *298:101 1.53822e-05
9 *324:B *298:127 0.000100193
10 *323:C *324:B 1.92172e-05
11 *522:D *324:B 3.56264e-05
*RES
1 *323:Y *324:B 38.7768 
*END

*D_NET *91 0.00178552
*CONN
*I *392:A2 I *D sky130_fd_sc_hd__o21ai_0
*I *327:A2 I *D sky130_fd_sc_hd__o21ai_0
*I *325:Y O *D sky130_fd_sc_hd__inv_1
*CAP
1 *392:A2 9.46809e-05
2 *327:A2 0.000344125
3 *325:Y 0.000148975
4 *91:12 0.000587781
5 *327:A2 *326:B1 6.64392e-05
6 *327:A2 *327:A1 6.50586e-05
7 *327:A2 *327:B1 1.41291e-05
8 *327:A2 *399:A_N 2.81678e-06
9 *327:A2 *399:B 2.60984e-05
10 *327:A2 *223:36 3.46105e-05
11 *392:A2 *393:B1 2.57847e-05
12 *392:A2 *211:10 4.70559e-05
13 *392:A2 *229:81 6.36477e-05
14 *91:12 *211:10 8.36586e-06
15 *91:12 *223:36 6.00813e-05
16 *91:12 *229:81 8.46327e-05
17 *85:6 *327:A2 4.58907e-05
18 *85:14 *327:A2 6.53502e-05
*RES
1 *325:Y *91:12 17.2536 
2 *91:12 *327:A2 23.4405 
3 *91:12 *392:A2 16.5122 
*END

*D_NET *92 0.000639006
*CONN
*I *327:B1 I *D sky130_fd_sc_hd__o21ai_0
*I *326:Y O *D sky130_fd_sc_hd__o21ai_0
*CAP
1 *327:B1 0.00020424
2 *326:Y 0.00020424
3 *326:A2 *327:B1 0
4 *327:A2 *327:B1 1.41291e-05
5 *85:6 *327:B1 5.09367e-05
6 *85:14 *327:B1 0.000165459
*RES
1 *326:Y *327:B1 22.4287 
*END

*D_NET *93 0.00194607
*CONN
*I *331:A1 I *D sky130_fd_sc_hd__a22o_1
*I *381:A1 I *D sky130_fd_sc_hd__o21ai_0
*I *328:Y O *D sky130_fd_sc_hd__inv_1
*CAP
1 *331:A1 0.000566395
2 *381:A1 2.06324e-05
3 *328:Y 4.47363e-05
4 *93:6 0.000631764
5 *331:A1 *331:A2 5.98874e-05
6 *331:A1 *331:B1 2.56041e-05
7 *331:A1 *331:B2 0.000112367
8 *331:A1 *381:A2 9.14669e-05
9 *331:A1 *518:CLK 0.000163912
10 *331:A1 *519:SET_B 3.62414e-05
11 *331:A1 *118:6 6.25883e-06
12 *331:A1 *226:8 7.50872e-05
13 *331:A1 *293:47 0
14 *506:D *331:A1 0.000111722
*RES
1 *328:Y *93:6 10.2498 
2 *93:6 *381:A1 9.82786 
3 *93:6 *331:A1 32.8073 
*END

*D_NET *94 0.00324062
*CONN
*I *331:A2 I *D sky130_fd_sc_hd__a22o_1
*I *333:A2 I *D sky130_fd_sc_hd__o21ai_0
*I *329:Y O *D sky130_fd_sc_hd__nor3b_1
*CAP
1 *331:A2 0.000556631
2 *333:A2 4.37546e-05
3 *329:Y 0.000224016
4 *94:12 0.000824402
5 *331:A2 *331:B2 0.000107643
6 *331:A2 *398:A 3.20407e-05
7 *331:A2 *398:B 0.000125424
8 *331:A2 *226:8 0.000224808
9 *331:A2 *226:39 8.8175e-05
10 *331:A2 *288:12 0.000380432
11 *331:A2 *302:64 5.481e-05
12 *333:A2 *334:B1 3.00829e-05
13 *333:A2 *226:39 1.05809e-05
14 *94:12 *325:A 4.6097e-05
15 *94:12 *382:A 1.00766e-05
16 *94:12 *229:109 5.04423e-06
17 *94:12 *293:47 3.21615e-05
18 *329:A *94:12 3.00829e-05
19 *331:A1 *331:A2 5.98874e-05
20 *334:A1 *331:A2 0.000242109
21 *334:A1 *333:A2 0.000112361
*RES
1 *329:Y *94:12 22.4683 
2 *94:12 *333:A2 11.1059 
3 *94:12 *331:A2 38.3929 
*END

*D_NET *95 0.00161508
*CONN
*I *331:B1 I *D sky130_fd_sc_hd__a22o_1
*I *330:Y O *D sky130_fd_sc_hd__nand2_1
*CAP
1 *331:B1 0.000304797
2 *330:Y 0.000304797
3 *331:B1 *331:B2 1.49972e-05
4 *331:B1 *371:B1 0.000309709
5 *331:B1 *372:A 2.58757e-05
6 *331:B1 *372:B 0.00011851
7 *331:B1 *118:6 0.000351091
8 *331:B1 *289:14 2.58616e-05
9 *331:B1 *289:38 0.000109427
10 *330:B *331:B1 2.16355e-05
11 *331:A1 *331:B1 2.56041e-05
12 *370:A1 *331:B1 2.77625e-06
*RES
1 *330:Y *331:B1 30.5308 
*END

*D_NET *96 0.0018344
*CONN
*I *334:A2 I *D sky130_fd_sc_hd__o21ai_0
*I *401:A1 I *D sky130_fd_sc_hd__a21oi_2
*I *332:Y O *D sky130_fd_sc_hd__nand2_1
*CAP
1 *334:A2 0.000339669
2 *401:A1 1.76538e-05
3 *332:Y 9.06997e-05
4 *96:8 0.000448023
5 *334:A2 *325:A 4.39977e-05
6 *334:A2 *329:C_N 0
7 *334:A2 *382:A 7.58329e-05
8 *334:A2 *229:79 0.000323544
9 *334:A2 *233:34 6.72905e-05
10 *401:A1 *401:A2 6.50727e-05
11 *401:A1 *228:22 0.000171288
12 *96:8 *228:10 0
13 *96:8 *229:79 0.000143032
14 *85:6 *401:A1 4.82966e-05
*RES
1 *332:Y *96:8 16.4116 
2 *96:8 *401:A1 15.5817 
3 *96:8 *334:A2 24.3747 
*END

*D_NET *97 0.000345714
*CONN
*I *334:B1 I *D sky130_fd_sc_hd__o21ai_0
*I *333:Y O *D sky130_fd_sc_hd__o21ai_0
*CAP
1 *334:B1 4.36973e-05
2 *333:Y 4.36973e-05
3 *334:B1 *226:39 0.000220559
4 *333:A2 *334:B1 3.00829e-05
5 *334:A1 *334:B1 7.67734e-06
*RES
1 *333:Y *334:B1 20.9096 
*END

*D_NET *98 0.00052327
*CONN
*I *337:C I *D sky130_fd_sc_hd__nor4_2
*I *335:Y O *D sky130_fd_sc_hd__nand4b_1
*CAP
1 *337:C 0.000165638
2 *335:Y 0.000165638
3 *337:C *337:B 5.79081e-05
4 *337:C *350:C 4.92606e-05
5 *337:C *197:35 6.27782e-05
6 *362:A *337:C 2.20471e-05
*RES
1 *335:Y *337:C 23.128 
*END

*D_NET *99 0.000501815
*CONN
*I *337:D I *D sky130_fd_sc_hd__nor4_2
*I *336:Y O *D sky130_fd_sc_hd__nand2b_1
*CAP
1 *337:D 0.000169932
2 *336:Y 0.000169932
3 *337:D *195:21 0.00016195
*RES
1 *336:Y *337:D 31.9934 
*END

*D_NET *100 0.000860491
*CONN
*I *342:B I *D sky130_fd_sc_hd__nor2_1
*I *341:Y O *D sky130_fd_sc_hd__xnor2_1
*CAP
1 *342:B 0.000363049
2 *341:Y 0.000363049
3 *342:B *341:A 5.07314e-05
4 *342:B *191:25 0
5 *342:B *293:91 0
6 *31:10 *342:B 8.36615e-05
*RES
1 *341:Y *342:B 35.3154 
*END

*D_NET *101 0.000468832
*CONN
*I *344:B I *D sky130_fd_sc_hd__xor2_1
*I *343:Y O *D sky130_fd_sc_hd__nand3_1
*CAP
1 *344:B 0.000216507
2 *343:Y 0.000216507
3 *344:B *341:A 3.58185e-05
4 *344:B *194:21 0
*RES
1 *343:Y *344:B 31.5781 
*END

*D_NET *102 0.000327137
*CONN
*I *345:B I *D sky130_fd_sc_hd__nor2_1
*I *344:X O *D sky130_fd_sc_hd__xor2_1
*CAP
1 *345:B 7.28667e-05
2 *344:X 7.28667e-05
3 *345:B *344:A 5.04829e-06
4 *345:B *345:A 0.000113968
5 *345:B *194:6 6.23875e-05
*RES
1 *344:X *345:B 20.9096 
*END

*D_NET *103 0.000325789
*CONN
*I *347:B I *D sky130_fd_sc_hd__xnor2_1
*I *346:Y O *D sky130_fd_sc_hd__nand3_1
*CAP
1 *347:B 3.65593e-05
2 *346:Y 3.65593e-05
3 *347:B *195:12 0.000126335
4 *347:B *283:10 0.000126335
*RES
1 *346:Y *347:B 29.7455 
*END

*D_NET *104 0.00379875
*CONN
*I *355:B I *D sky130_fd_sc_hd__or3_1
*I *354:A1 I *D sky130_fd_sc_hd__o21ai_0
*I *360:A I *D sky130_fd_sc_hd__nor3_1
*I *351:C I *D sky130_fd_sc_hd__nor3_1
*I *350:Y O *D sky130_fd_sc_hd__nand3_1
*CAP
1 *355:B 6.7062e-05
2 *354:A1 0
3 *360:A 9.50461e-05
4 *351:C 0.0003746
5 *350:Y 4.55814e-05
6 *104:35 0.000272053
7 *104:29 0.000544743
8 *104:8 0.000720855
9 *351:C *336:B 1.53954e-05
10 *351:C *341:A 3.25618e-05
11 *351:C *343:B 0.000171805
12 *351:C *343:C 0.000264614
13 *351:C *350:C 4.89548e-05
14 *351:C *193:33 0.000107643
15 *355:B *197:16 2.692e-05
16 *355:B *293:119 0
17 *360:A *360:B 5.22909e-05
18 *104:29 *350:C 3.54581e-05
19 *104:29 *197:16 1.02704e-05
20 *104:29 *283:10 0
21 *104:29 *293:119 0
22 *104:35 *354:B1 6.3657e-05
23 *104:35 *356:A1 6.92705e-05
24 *104:35 *360:B 1.41976e-05
25 *104:35 *197:16 0.000225011
26 *104:35 *197:35 2.42273e-05
27 *335:D *351:C 2.57847e-05
28 *346:C *104:8 2.58616e-05
29 *351:A *351:C 6.50727e-05
30 *362:A *360:A 2.03973e-05
31 *482:A *351:C 0.000110297
32 *495:D *360:A 0.000114584
33 *9:38 *104:29 0.000118207
34 *31:21 *351:C 3.63328e-05
*RES
1 *350:Y *104:8 14.4725 
2 *104:8 *351:C 26.0595 
3 *104:8 *104:29 7.30355 
4 *104:29 *104:35 9.68434 
5 *104:35 *360:A 12.191 
6 *104:35 *354:A1 9.24915 
7 *104:29 *355:B 15.5811 
*END

*D_NET *105 0.00186774
*CONN
*I *357:C I *D sky130_fd_sc_hd__and3_1
*I *352:B I *D sky130_fd_sc_hd__xor2_1
*I *351:Y O *D sky130_fd_sc_hd__nor3_1
*CAP
1 *357:C 0.000168293
2 *352:B 0
3 *351:Y 0.000476224
4 *105:10 0.000644516
5 *357:C *335:A_N 7.14024e-05
6 *357:C *357:A 0.000183809
7 *105:10 *343:B 0
8 *105:10 *296:165 0
9 *340:B_N *105:10 5.22654e-06
10 *351:B *105:10 0.000100396
11 *482:B *105:10 0.000217873
12 *28:12 *105:10 0
*RES
1 *351:Y *105:10 23.0935 
2 *105:10 *352:B 13.7491 
3 *105:10 *357:C 18.4773 
*END

*D_NET *106 0.00337634
*CONN
*I *354:A2 I *D sky130_fd_sc_hd__o21ai_0
*I *355:C I *D sky130_fd_sc_hd__or3_1
*I *360:B I *D sky130_fd_sc_hd__nor3_1
*I *353:Y O *D sky130_fd_sc_hd__nand2_1
*CAP
1 *354:A2 3.27701e-05
2 *355:C 0.000351599
3 *360:B 0.000277422
4 *353:Y 0.000337512
5 *106:12 0.000666437
6 *106:10 0.000407699
7 *355:C *335:C 3.60268e-05
8 *355:C *356:A1 0.00019469
9 *355:C *659:A 8.83451e-06
10 *355:C *293:119 1.45944e-05
11 *355:C *293:123 6.61623e-05
12 *355:C *293:151 3.11933e-06
13 *355:C *300:8 0.000122378
14 *360:B *361:B 8.03393e-06
15 *360:B *362:B 8.18344e-06
16 *106:10 *335:C 3.46062e-05
17 *106:10 *337:A 5.35603e-05
18 *106:10 *353:A 3.96696e-05
19 *106:10 *196:32 0.000112361
20 *106:10 *197:35 0.000145413
21 *106:10 *293:119 9.34396e-06
22 *106:12 *335:C 2.04806e-05
23 *106:12 *356:A1 8.62625e-06
24 *106:12 *293:119 8.62321e-06
25 *335:D *106:10 3.56119e-05
26 *360:A *360:B 5.22909e-05
27 *362:A *106:10 7.40253e-05
28 *494:D *360:B 0
29 *495:D *360:B 0.000232069
30 *104:35 *360:B 1.41976e-05
*RES
1 *353:Y *106:10 22.1209 
2 *106:10 *106:12 1.00149 
3 *106:12 *360:B 27.9704 
4 *106:12 *355:C 23.0052 
5 *106:10 *354:A2 14.4819 
*END

*D_NET *107 0.0014771
*CONN
*I *356:A1 I *D sky130_fd_sc_hd__a21oi_1
*I *354:Y O *D sky130_fd_sc_hd__o21ai_0
*CAP
1 *356:A1 0.000368716
2 *354:Y 0.000368716
3 *356:A1 *355:A 6.50586e-05
4 *356:A1 *356:A2 0.000206601
5 *356:A1 *293:119 3.92275e-05
6 *356:A1 *293:123 4.58003e-05
7 *356:A1 *300:8 0.000110393
8 *355:C *356:A1 0.00019469
9 *104:35 *356:A1 6.92705e-05
10 *106:12 *356:A1 8.62625e-06
*RES
1 *354:Y *356:A1 39.3132 
*END

*D_NET *108 0.000435768
*CONN
*I *356:A2 I *D sky130_fd_sc_hd__a21oi_1
*I *355:X O *D sky130_fd_sc_hd__or3_1
*CAP
1 *356:A2 0.000107518
2 *355:X 0.000107518
3 *356:A2 *300:8 1.41291e-05
4 *356:A1 *356:A2 0.000206601
*RES
1 *355:X *356:A2 21.8741 
*END

*D_NET *109 0.000676105
*CONN
*I *358:B I *D sky130_fd_sc_hd__xor2_1
*I *357:X O *D sky130_fd_sc_hd__and3_1
*CAP
1 *358:B 0.000266569
2 *357:X 0.000266569
3 *358:B *360:C 0.000120546
4 *358:B *198:14 0
5 *494:D *358:B 1.50709e-05
6 *495:D *358:B 7.34948e-06
*RES
1 *357:X *358:B 33.9989 
*END

*D_NET *110 0.000968766
*CONN
*I *360:C I *D sky130_fd_sc_hd__nor3_1
*I *359:Y O *D sky130_fd_sc_hd__nand2_1
*CAP
1 *360:C 0.000383622
2 *359:Y 0.000383622
3 *360:C *359:A 7.48633e-05
4 *358:B *360:C 0.000120546
5 *362:A *360:C 0
6 *495:D *360:C 6.11359e-06
*RES
1 *359:Y *360:C 25.2018 
*END

*D_NET *111 0.000380456
*CONN
*I *361:B I *D sky130_fd_sc_hd__xnor2_1
*I *360:Y O *D sky130_fd_sc_hd__nor3_1
*CAP
1 *361:B 0.000127755
2 *360:Y 0.000127755
3 *360:B *361:B 8.03393e-06
4 *495:D *361:B 0.000116913
*RES
1 *360:Y *361:B 30.4689 
*END

*D_NET *112 0.000600756
*CONN
*I *362:B I *D sky130_fd_sc_hd__nor2_1
*I *361:Y O *D sky130_fd_sc_hd__xnor2_1
*CAP
1 *362:B 0.000174885
2 *361:Y 0.000174885
3 *362:B *335:C 0.000242802
4 *360:B *362:B 8.18344e-06
5 *494:D *362:B 0
*RES
1 *361:Y *362:B 31.4388 
*END

*D_NET *113 0.000619308
*CONN
*I *365:A1 I *D sky130_fd_sc_hd__mux2_2
*I *364:Y O *D sky130_fd_sc_hd__nor2_1
*CAP
1 *365:A1 0.000213021
2 *364:Y 0.000213021
3 *365:A1 *212:10 5.22654e-06
4 *365:A1 *212:14 0.000110767
5 *364:A *365:A1 7.72722e-05
*RES
1 *364:Y *365:A1 33.3757 
*END

*D_NET *114 0.000419057
*CONN
*I *367:A2 I *D sky130_fd_sc_hd__a22o_1
*I *365:X O *D sky130_fd_sc_hd__mux2_2
*CAP
1 *367:A2 9.18605e-05
2 *365:X 9.18605e-05
3 *367:A2 *365:S 0.000235336
4 *367:A2 *367:A1 0
*RES
1 *365:X *367:A2 21.8741 
*END

*D_NET *115 0.00443935
*CONN
*I *367:B1 I *D sky130_fd_sc_hd__a22o_1
*I *369:A2 I *D sky130_fd_sc_hd__a22o_1
*I *371:A2 I *D sky130_fd_sc_hd__a22o_1
*I *366:Y O *D sky130_fd_sc_hd__nor2_1
*CAP
1 *367:B1 4.93341e-05
2 *369:A2 0.000127385
3 *371:A2 0
4 *366:Y 0.000690498
5 *115:25 0.000403492
6 *115:10 0.000917271
7 *367:B1 *367:A1 9.99478e-05
8 *367:B1 *368:S 5.73392e-05
9 *369:A2 *367:A1 8.00571e-05
10 *369:A2 *368:S 6.92705e-05
11 *369:A2 *369:A1 0.00043527
12 *369:A2 *369:B1 0.000275948
13 *369:A2 *213:21 4.88955e-05
14 *115:10 *330:A 2.67514e-05
15 *115:10 *371:B1 5.70826e-05
16 *115:10 *520:CLK 1.8096e-05
17 *115:10 *289:10 0.000237772
18 *115:10 *289:38 7.40248e-05
19 *115:10 *289:53 5.70826e-05
20 *115:25 *367:B2 0.000216103
21 *115:25 *288:59 0
22 *115:25 *289:53 4.12789e-05
23 *323:C *115:10 0.000192431
24 *330:B *115:10 4.06342e-05
25 *368:A1 *115:25 5.39463e-05
26 *520:D *115:10 0.000169442
*RES
1 *366:Y *115:10 29.1886 
2 *115:10 *371:A2 13.7491 
3 *115:10 *115:25 11.8036 
4 *115:25 *369:A2 16.6519 
5 *115:25 *367:B1 11.6605 
*END

*D_NET *116 0.000808891
*CONN
*I *369:B1 I *D sky130_fd_sc_hd__a22o_1
*I *368:X O *D sky130_fd_sc_hd__mux2_2
*CAP
1 *369:B1 7.44631e-05
2 *368:X 7.44631e-05
3 *369:B1 *367:A1 4.56831e-05
4 *369:B1 *369:A1 2.29454e-05
5 *369:B1 *369:B2 0.000315389
6 *369:A2 *369:B1 0.000275948
*RES
1 *368:X *369:B1 23.7067 
*END

*D_NET *117 0.000986771
*CONN
*I *371:B1 I *D sky130_fd_sc_hd__a22o_1
*I *370:X O *D sky130_fd_sc_hd__mux2_2
*CAP
1 *371:B1 0.000299205
2 *370:X 0.000299205
3 *371:B1 *370:A0 1.32043e-05
4 *371:B1 *289:38 8.36586e-06
5 *331:B1 *371:B1 0.000309709
6 *115:10 *371:B1 5.70826e-05
*RES
1 *370:X *371:B1 33.6572 
*END

*D_NET *118 0.0156809
*CONN
*I *381:A2 I *D sky130_fd_sc_hd__o21ai_0
*I *377:S I *D sky130_fd_sc_hd__mux2_2
*I *379:S I *D sky130_fd_sc_hd__mux2_2
*I *378:S I *D sky130_fd_sc_hd__mux2_2
*I *376:S I *D sky130_fd_sc_hd__mux2_2
*I *375:S I *D sky130_fd_sc_hd__mux2_2
*I *374:S I *D sky130_fd_sc_hd__mux2_2
*I *373:S I *D sky130_fd_sc_hd__mux2_2
*I *380:B I *D sky130_fd_sc_hd__nand2_1
*I *372:Y O *D sky130_fd_sc_hd__nand2_1
*CAP
1 *381:A2 0.000291404
2 *377:S 0.00100193
3 *379:S 3.70615e-05
4 *378:S 0
5 *376:S 3.63867e-05
6 *375:S 0
7 *374:S 0.000219034
8 *373:S 3.66867e-05
9 *380:B 0
10 *372:Y 0.000559797
11 *118:70 0.000615922
12 *118:60 0.00128332
13 *118:41 0.00136899
14 *118:37 0.000873829
15 *118:31 0.000580607
16 *118:29 0.001483
17 *118:18 0.000865829
18 *118:6 0.00138794
19 *373:S *373:A1 5.04829e-06
20 *374:S *502:RESET_B 3.78664e-05
21 *374:S *297:322 0.000116634
22 *377:S rx_data[0] 0
23 *377:S *377:A1 1.21461e-06
24 *377:S *389:A0 3.97254e-05
25 *377:S *513:CLK 5.01992e-05
26 *377:S *514:CLK 7.23367e-05
27 *377:S *208:8 6.99486e-05
28 *379:S *390:A1 0.000112361
29 *381:A2 *381:B1 1.90191e-05
30 *381:A2 *293:47 0.000155928
31 *118:6 *331:B2 3.00835e-06
32 *118:6 *303:8 6.69545e-05
33 *118:18 *380:A 0.000220775
34 *118:18 *381:B1 0.000309865
35 *118:18 *519:CLK 2.10465e-05
36 *118:18 *637:A 1.00554e-05
37 *118:18 *303:8 3.31745e-05
38 *118:18 *303:23 3.02592e-05
39 *118:29 rx_data[0] 0.000164257
40 *118:29 *380:A 4.65954e-06
41 *118:29 *390:A0 7.9328e-05
42 *118:29 *503:RESET_B 3.42506e-05
43 *118:29 *637:A 5.28741e-05
44 *118:29 *303:8 7.06733e-06
45 *118:31 *513:CLK 3.44412e-06
46 *118:37 *379:A0 0
47 *118:37 *220:10 0
48 *118:37 *220:21 0
49 *118:37 *297:120 0
50 *118:37 *297:130 0
51 *118:60 *376:A0 0.000142048
52 *118:60 *384:A1 0.000655196
53 *118:60 *507:RESET_B 5.80086e-05
54 *118:60 *508:RESET_B 5.01633e-05
55 *118:60 *215:10 5.56367e-05
56 *118:60 *294:76 0.000364137
57 *118:60 *297:228 5.27791e-05
58 *118:70 *375:A0 0.000211467
59 *118:70 *375:A1 0.000206718
60 *118:70 *376:A0 4.55845e-05
61 *118:70 *376:A1 6.54872e-06
62 *118:70 *502:RESET_B 1.21985e-05
63 *118:70 *510:CLK 0.000112618
64 *118:70 *218:24 3.01368e-06
65 *118:70 *301:20 5.71992e-05
66 *331:A1 *381:A2 9.14669e-05
67 *331:A1 *118:6 6.25883e-06
68 *331:B1 *118:6 0.000351091
69 *500:D *374:S 0
70 *501:D *374:S 0
71 *502:D *118:70 2.16355e-05
72 *504:D *118:41 0.000106032
73 *506:D *381:A2 0.000380925
74 *507:D *118:60 0.000107496
75 *513:D *118:29 6.77815e-05
76 *513:D *118:31 2.48149e-05
77 *513:D *118:37 1.79581e-05
78 *514:D *377:S 0.000103415
79 *519:D *381:A2 5.68225e-06
*RES
1 *372:Y *118:6 18.2916 
2 *118:6 *118:18 19.2287 
3 *118:18 *380:B 9.24915 
4 *118:18 *118:29 15.2304 
5 *118:29 *118:31 3.493 
6 *118:31 *118:37 13.8416 
7 *118:37 *118:41 12.3942 
8 *118:41 *373:S 9.97254 
9 *118:41 *118:60 33.0823 
10 *118:60 *118:70 19.0706 
11 *118:70 *374:S 24.6489 
12 *118:70 *375:S 9.24915 
13 *118:60 *376:S 10.2378 
14 *118:37 *378:S 9.24915 
15 *118:31 *379:S 15.0271 
16 *118:29 *377:S 33.5753 
17 *118:6 *381:A2 28.6971 
*END

*D_NET *119 0.00191453
*CONN
*I *381:B1 I *D sky130_fd_sc_hd__o21ai_0
*I *380:Y O *D sky130_fd_sc_hd__nand2_1
*CAP
1 *381:B1 0.000293353
2 *380:Y 0.000293353
3 *381:B1 *380:A 1.00901e-05
4 *381:B1 *637:A 0.000109427
5 *381:B1 *639:A 0
6 *381:B1 *303:8 0.000354448
7 *381:A2 *381:B1 1.90191e-05
8 *506:D *381:B1 0.000355901
9 *519:D *381:B1 0.000169078
10 *118:18 *381:B1 0.000309865
*RES
1 *380:Y *381:B1 39.8888 
*END

*D_NET *120 0.00082878
*CONN
*I *393:A2 I *D sky130_fd_sc_hd__o21ai_0
*I *383:B I *D sky130_fd_sc_hd__nor2_2
*I *382:Y O *D sky130_fd_sc_hd__nand3_1
*CAP
1 *393:A2 0.000112607
2 *383:B 0.000203781
3 *382:Y 0
4 *120:4 0.000316388
5 *383:B *382:C 6.27782e-05
6 *383:B *653:A 1.21461e-06
7 *393:A2 *382:C 4.73299e-05
8 *393:A2 *393:B1 1.59756e-05
9 *383:A *393:A2 5.04829e-06
10 *515:D *393:A2 6.3657e-05
*RES
1 *382:Y *120:4 9.24915 
2 *120:4 *383:B 12.625 
3 *120:4 *393:A2 21.3833 
*END

*D_NET *121 0.00043102
*CONN
*I *653:A I *D sky130_fd_sc_hd__buf_12
*I *383:Y O *D sky130_fd_sc_hd__nor2_2
*CAP
1 *653:A 0.000126309
2 *383:Y 0.000126309
3 *653:A *297:120 0.000177188
4 *383:B *653:A 1.21461e-06
*RES
1 *383:Y *653:A 31.2994 
*END

*D_NET *122 0.000356558
*CONN
*I *393:B1 I *D sky130_fd_sc_hd__o21ai_0
*I *392:Y O *D sky130_fd_sc_hd__o21ai_0
*CAP
1 *393:B1 0.000124622
2 *392:Y 0.000124622
3 *393:B1 *382:C 1.78942e-05
4 *393:B1 *392:A1 1.05106e-05
5 *393:B1 *229:81 2.16465e-05
6 *392:A2 *393:B1 2.57847e-05
7 *393:A2 *393:B1 1.59756e-05
8 *515:D *393:B1 1.55025e-05
*RES
1 *392:Y *393:B1 21.8741 
*END

*D_NET *123 0.00117687
*CONN
*I *407:A1 I *D sky130_fd_sc_hd__a211o_1
*I *396:A2 I *D sky130_fd_sc_hd__a211oi_1
*I *394:Y O *D sky130_fd_sc_hd__nand3b_1
*CAP
1 *407:A1 0.00035443
2 *396:A2 8.70493e-05
3 *394:Y 7.42652e-05
4 *123:6 0.000515744
5 *396:A2 *229:58 0
6 *407:A1 *318:C 5.04829e-06
7 *407:A1 *407:B1 1.47978e-05
8 *407:A1 *190:20 0
9 *407:A1 *229:58 3.70505e-05
10 *123:6 *318:C 1.92172e-05
11 *123:6 *190:20 6.92705e-05
12 *32:12 *396:A2 0
*RES
1 *394:Y *123:6 10.5271 
2 *123:6 *396:A2 20.0811 
3 *123:6 *407:A1 16.2902 
*END

*D_NET *124 0.00637492
*CONN
*I *403:A3 I *D sky130_fd_sc_hd__o31a_1
*I *407:B1 I *D sky130_fd_sc_hd__a211o_1
*I *396:B1 I *D sky130_fd_sc_hd__a211oi_1
*I *413:A3 I *D sky130_fd_sc_hd__o32ai_1
*I *395:Y O *D sky130_fd_sc_hd__nor2b_4
*CAP
1 *403:A3 6.00239e-05
2 *407:B1 7.83968e-05
3 *396:B1 0.00032534
4 *413:A3 0.000113041
5 *395:Y 0.000442362
6 *124:35 0.000762462
7 *124:16 0.000753742
8 *124:10 0.000784362
9 *396:B1 *397:A 2.78888e-05
10 *396:B1 *405:A1 6.43457e-05
11 *396:B1 *409:S 2.86829e-05
12 *396:B1 *416:C 1.00901e-05
13 *396:B1 *417:C 1.3388e-05
14 *396:B1 *133:16 0.000109421
15 *396:B1 *228:64 9.20976e-05
16 *396:B1 *229:68 6.64392e-05
17 *396:B1 *230:28 4.9e-05
18 *403:A3 *403:A2 1.41976e-05
19 *407:B1 *405:A1 3.28493e-05
20 *407:B1 *407:C1 6.40236e-06
21 *407:B1 *417:C 2.05342e-06
22 *407:B1 *419:A2_N 2.77419e-05
23 *407:B1 *229:58 5.20546e-06
24 *413:A3 *413:A2 5.54585e-05
25 *413:A3 *413:B2 6.17193e-05
26 *413:A3 *298:101 5.54585e-05
27 *124:10 *395:B_N 6.92705e-05
28 *124:10 *398:C 0.000239228
29 *124:10 *526:CLK 3.16904e-05
30 *124:10 *229:18 9.49811e-05
31 *124:10 *288:6 0.000161493
32 *124:10 *298:127 0
33 *124:16 *398:C 6.47324e-05
34 *124:16 *403:A1 2.41817e-05
35 *124:16 *411:A 0.000114172
36 *124:16 *413:A2 4.74531e-05
37 *124:16 *228:93 0.000388702
38 *124:16 *229:18 0.000102122
39 *124:16 *229:35 1.62321e-05
40 *124:16 *298:101 9.64558e-05
41 *124:35 *228:70 0.000804458
42 *407:A1 *407:B1 1.47978e-05
43 *523:D *396:B1 6.27782e-05
*RES
1 *395:Y *124:10 27.8007 
2 *124:10 *124:16 10.0027 
3 *124:16 *413:A3 16.6703 
4 *124:16 *124:35 7.85832 
5 *124:35 *396:B1 22.6833 
6 *124:35 *407:B1 15.8451 
7 *124:10 *403:A3 15.0513 
*END

*D_NET *125 0.00273373
*CONN
*I *417:B I *D sky130_fd_sc_hd__nor3_1
*I *397:B I *D sky130_fd_sc_hd__nor2_1
*I *396:Y O *D sky130_fd_sc_hd__a211oi_1
*CAP
1 *417:B 0.000390349
2 *397:B 9.3831e-05
3 *396:Y 0.0001629
4 *125:10 0.00064708
5 *397:B *318:C 0
6 *397:B *397:A 6.36477e-05
7 *397:B *130:10 2.74378e-05
8 *397:B *133:16 2.26334e-05
9 *397:B *232:35 0.000165521
10 *417:B *417:A 6.83813e-05
11 *417:B *417:C 2.65667e-05
12 *417:B *418:A1 0.000546127
13 *417:B *419:A2_N 2.32756e-05
14 *417:B *229:50 6.50586e-05
15 *125:10 *318:C 0
16 *125:10 *408:B 0.000137673
17 *125:10 *418:A1 0.000124262
18 *125:10 *133:16 1.55462e-05
19 *125:10 *228:64 7.2855e-05
20 *125:10 *229:58 8.05858e-05
21 *400:B *397:B 0
*RES
1 *396:Y *125:10 19.4189 
2 *125:10 *397:B 17.3696 
3 *125:10 *417:B 24.3056 
*END

*D_NET *126 0.00175863
*CONN
*I *405:A1 I *D sky130_fd_sc_hd__mux2_1
*I *397:Y O *D sky130_fd_sc_hd__nor2_1
*CAP
1 *405:A1 0.000457949
2 *397:Y 0.000457949
3 *405:A1 *397:A 0.000237469
4 *405:A1 *419:A2_N 4.64457e-05
5 *405:A1 *232:35 0.000461621
6 *396:B1 *405:A1 6.43457e-05
7 *407:B1 *405:A1 3.28493e-05
*RES
1 *397:Y *405:A1 37.3973 
*END

*D_NET *127 0.00305389
*CONN
*I *414:A1 I *D sky130_fd_sc_hd__o21ai_0
*I *418:B1 I *D sky130_fd_sc_hd__a2111oi_4
*I *404:A I *D sky130_fd_sc_hd__nor3_4
*I *398:Y O *D sky130_fd_sc_hd__nor4_4
*CAP
1 *414:A1 0.000148681
2 *418:B1 0.000143141
3 *404:A 0
4 *398:Y 0.000351494
5 *127:21 0.000439255
6 *127:12 0.000498926
7 *414:A1 *414:A2 0.000175485
8 *414:A1 *418:D1 5.73392e-05
9 *414:A1 *132:6 4.33819e-05
10 *418:B1 *404:B 0.000143047
11 *418:B1 *418:C1 6.50586e-05
12 *418:B1 *419:A1_N 5.35712e-06
13 *418:B1 *419:A2_N 0.000165049
14 *418:B1 *419:B1 4.0752e-05
15 *418:B1 *232:35 2.20702e-05
16 *418:B1 *233:16 6.18302e-05
17 *418:B1 *233:22 0.000207266
18 *127:12 *317:A 0.000219263
19 *127:12 *398:C 0.000114271
20 *127:12 *419:A1_N 6.53231e-05
21 *127:12 *302:64 2.41961e-05
22 *127:21 *418:D1 3.82228e-05
23 *127:21 *419:A1_N 2.44829e-05
*RES
1 *398:Y *127:12 26.6209 
2 *127:12 *404:A 9.24915 
3 *127:12 *127:21 3.52053 
4 *127:21 *418:B1 24.8474 
5 *127:21 *414:A1 13.8548 
*END

*D_NET *128 0.000249339
*CONN
*I *401:A2 I *D sky130_fd_sc_hd__a21oi_2
*I *399:Y O *D sky130_fd_sc_hd__nand3b_1
*CAP
1 *401:A2 2.34039e-05
2 *399:Y 2.34039e-05
3 *401:A2 *228:22 2.57365e-05
4 *401:A1 *401:A2 6.50727e-05
5 *85:6 *401:A2 0.000111722
*RES
1 *399:Y *401:A2 19.7763 
*END

*D_NET *129 0.000192345
*CONN
*I *401:B1 I *D sky130_fd_sc_hd__a21oi_2
*I *400:Y O *D sky130_fd_sc_hd__nand2_1
*CAP
1 *401:B1 1.30087e-05
2 *400:Y 1.30087e-05
3 *401:B1 *130:10 1.38625e-05
4 *400:B *401:B1 3.14978e-05
5 *85:6 *401:B1 0.000120967
*RES
1 *400:Y *401:B1 19.7763 
*END

*D_NET *130 0.00319714
*CONN
*I *414:A2 I *D sky130_fd_sc_hd__o21ai_0
*I *404:B I *D sky130_fd_sc_hd__nor3_4
*I *418:C1 I *D sky130_fd_sc_hd__a2111oi_4
*I *401:Y O *D sky130_fd_sc_hd__a21oi_2
*CAP
1 *414:A2 2.24226e-05
2 *404:B 8.0721e-05
3 *418:C1 3.08065e-05
4 *401:Y 0.000631767
5 *130:10 0.000720872
6 *404:B *418:D1 0.000118485
7 *404:B *419:A1_N 1.2693e-05
8 *414:A2 *132:6 0.000228593
9 *418:C1 *419:B1 0.000118166
10 *418:C1 *233:22 1.67988e-05
11 *130:10 *397:A 0.000188182
12 *130:10 *232:35 8.47213e-05
13 *130:10 *233:22 0.000264586
14 *318:B *130:10 2.15348e-05
15 *397:B *130:10 2.74378e-05
16 *400:B *130:10 0.000222149
17 *401:B1 *130:10 1.38625e-05
18 *414:A1 *414:A2 0.000175485
19 *418:B1 *404:B 0.000143047
20 *418:B1 *418:C1 6.50586e-05
21 *85:6 *130:10 9.75148e-06
*RES
1 *401:Y *130:10 22.3667 
2 *130:10 *418:C1 11.1059 
3 *130:10 *404:B 20.9116 
4 *404:B *414:A2 20.8855 
*END

*D_NET *131 0.000595914
*CONN
*I *403:B1 I *D sky130_fd_sc_hd__o31a_1
*I *402:Y O *D sky130_fd_sc_hd__inv_1
*CAP
1 *403:B1 0.000156301
2 *402:Y 0.000156301
3 *403:B1 *229:18 7.48055e-05
4 *403:B1 *229:35 6.56617e-05
5 *403:B1 *233:16 0.000142844
*RES
1 *402:Y *403:B1 31.3008 
*END

*D_NET *132 0.00145952
*CONN
*I *404:C I *D sky130_fd_sc_hd__nor3_4
*I *418:D1 I *D sky130_fd_sc_hd__a2111oi_4
*I *403:X O *D sky130_fd_sc_hd__o31a_1
*CAP
1 *404:C 2.06324e-05
2 *418:D1 0.000222165
3 *403:X 0.000181658
4 *132:6 0.000424456
5 *418:D1 *397:A 3.20069e-06
6 *418:D1 *419:A1_N 3.31882e-05
7 *418:D1 *419:A2_N 7.56859e-06
8 *418:D1 *133:16 1.97826e-05
9 *132:6 *415:B 6.08467e-05
10 *404:B *418:D1 0.000118485
11 *414:A1 *418:D1 5.73392e-05
12 *414:A1 *132:6 4.33819e-05
13 *414:A2 *132:6 0.000228593
14 *127:21 *418:D1 3.82228e-05
*RES
1 *403:X *132:6 14.4094 
2 *132:6 *418:D1 23.8535 
3 *132:6 *404:C 9.82786 
*END

*D_NET *133 0.00425904
*CONN
*I *419:A1_N I *D sky130_fd_sc_hd__o2bb2ai_1
*I *405:S I *D sky130_fd_sc_hd__mux2_1
*I *409:S I *D sky130_fd_sc_hd__mux2i_1
*I *404:Y O *D sky130_fd_sc_hd__nor3_4
*CAP
1 *419:A1_N 0.00033051
2 *405:S 0
3 *409:S 0.000751151
4 *404:Y 0
5 *133:16 0.0011701
6 *133:4 0.000749463
7 *409:S *525:CLK 0
8 *409:S *230:28 5.35029e-05
9 *409:S *231:21 0
10 *409:S *285:26 0
11 *409:S *299:12 0
12 *419:A1_N *317:A 1.28326e-05
13 *419:A1_N *397:A 0
14 *419:A1_N *419:A2_N 9.13654e-05
15 *133:16 *317:A 8.62625e-06
16 *133:16 *318:C 0
17 *133:16 *397:A 0.000249034
18 *133:16 *407:A2 1.91391e-05
19 *133:16 *416:B 0.000107496
20 *133:16 *416:C 7.37722e-05
21 *133:16 *418:A1 5.42072e-05
22 *133:16 *228:64 7.97079e-05
23 *133:16 *230:28 3.20407e-05
24 *133:16 *233:22 7.14746e-05
25 *324:A *419:A1_N 2.08133e-05
26 *396:B1 *409:S 2.86829e-05
27 *396:B1 *133:16 0.000109421
28 *397:B *133:16 2.26334e-05
29 *404:B *419:A1_N 1.2693e-05
30 *418:B1 *419:A1_N 5.35712e-06
31 *418:D1 *419:A1_N 3.31882e-05
32 *418:D1 *133:16 1.97826e-05
33 *419:B2 *419:A1_N 4.66889e-05
34 *543:D *409:S 0
35 *85:47 *133:16 0
36 *125:10 *133:16 1.55462e-05
37 *127:12 *419:A1_N 6.53231e-05
38 *127:21 *419:A1_N 2.44829e-05
*RES
1 *404:Y *133:4 9.24915 
2 *133:4 *133:16 21.6047 
3 *133:16 *409:S 35.4833 
4 *133:16 *405:S 9.24915 
5 *133:4 *419:A1_N 27.5149 
*END

*D_NET *134 0.000760345
*CONN
*I *409:A0 I *D sky130_fd_sc_hd__mux2i_1
*I *406:Y O *D sky130_fd_sc_hd__inv_1
*CAP
1 *409:A0 0.000266837
2 *406:Y 0.000266837
3 *409:A0 *406:A 2.19465e-05
4 *409:A0 *293:67 5.66185e-05
5 *409:A0 *297:33 0
6 *409:A0 *299:16 5.05707e-05
7 *524:D *409:A0 9.75356e-05
*RES
1 *406:Y *409:A0 32.9647 
*END

*D_NET *135 0.00376524
*CONN
*I *418:A1 I *D sky130_fd_sc_hd__a2111oi_4
*I *408:B I *D sky130_fd_sc_hd__nand2_1
*I *407:X O *D sky130_fd_sc_hd__a211o_1
*CAP
1 *418:A1 0.00034297
2 *408:B 0.000415338
3 *407:X 0
4 *135:6 0.000758308
5 *408:B *228:51 9.23629e-05
6 *408:B *228:64 0.000159586
7 *418:A1 *402:A 7.74958e-05
8 *418:A1 *407:A2 6.34651e-06
9 *418:A1 *415:B 0.000123007
10 *418:A1 *417:A 0
11 *418:A1 *418:A2 5.66868e-06
12 *418:A1 *228:64 4.47123e-05
13 *418:A1 *285:14 0.000877172
14 *417:B *418:A1 0.000546127
15 *125:10 *408:B 0.000137673
16 *125:10 *418:A1 0.000124262
17 *133:16 *418:A1 5.42072e-05
*RES
1 *407:X *135:6 13.7491 
2 *135:6 *408:B 21.8694 
3 *135:6 *418:A1 26.5937 
*END

*D_NET *136 0.00214778
*CONN
*I *409:A1 I *D sky130_fd_sc_hd__mux2i_1
*I *408:Y O *D sky130_fd_sc_hd__nand2_1
*CAP
1 *409:A1 0.000675895
2 *408:Y 0.000675895
3 *409:A1 *484:A 7.92838e-05
4 *409:A1 *666:A 0
5 *409:A1 *229:68 0.000159032
6 *409:A1 *231:21 0
7 *409:A1 *293:67 0.000520271
8 *408:A *409:A1 2.48716e-05
9 *523:D *409:A1 1.2535e-05
*RES
1 *408:Y *409:A1 46.3641 
*END

*D_NET *137 0.000671623
*CONN
*I *411:B I *D sky130_fd_sc_hd__nor2_1
*I *412:B I *D sky130_fd_sc_hd__and2_1
*I *410:Y O *D sky130_fd_sc_hd__nand2_1
*CAP
1 *411:B 6.51951e-05
2 *412:B 0.000172096
3 *410:Y 0
4 *137:4 0.000237291
5 *411:B *411:A 7.96388e-06
6 *411:B *413:B1 6.08467e-05
7 *411:B *229:50 4.89898e-06
8 *412:B *410:B 3.49365e-05
9 *412:B *413:B2 1.80257e-05
10 *412:B *229:50 9.80242e-07
11 *410:A *411:B 6.93887e-05
*RES
1 *410:Y *137:4 9.24915 
2 *137:4 *412:B 12.9626 
3 *137:4 *411:B 11.6846 
*END

*D_NET *138 0.000524595
*CONN
*I *413:B1 I *D sky130_fd_sc_hd__o32ai_1
*I *411:Y O *D sky130_fd_sc_hd__nor2_1
*CAP
1 *413:B1 0.000140174
2 *411:Y 0.000140174
3 *413:B1 *411:A 7.92757e-06
4 *413:B1 *298:101 8.77364e-05
5 *410:A *413:B1 8.77364e-05
6 *411:B *413:B1 6.08467e-05
*RES
1 *411:Y *413:B1 30.6083 
*END

*D_NET *139 0.00143804
*CONN
*I *413:B2 I *D sky130_fd_sc_hd__o32ai_1
*I *412:X O *D sky130_fd_sc_hd__and2_1
*CAP
1 *413:B2 0.000421579
2 *412:X 0.000421579
3 *413:B2 *402:A 8.61737e-06
4 *413:B2 *410:B 5.69888e-06
5 *413:B2 *415:A 6.40939e-05
6 *413:B2 *415:B 2.58616e-05
7 *413:B2 *416:A 5.04829e-06
8 *413:B2 *418:A2 0.000156136
9 *413:B2 *229:50 0.000107496
10 *413:B2 *285:26 0.000138938
11 *412:B *413:B2 1.80257e-05
12 *413:A3 *413:B2 6.17193e-05
13 *525:D *413:B2 3.24737e-06
*RES
1 *412:X *413:B2 37.2313 
*END

*D_NET *140 0.000241041
*CONN
*I *415:A I *D sky130_fd_sc_hd__nand2_1
*I *413:Y O *D sky130_fd_sc_hd__o32ai_1
*CAP
1 *415:A 8.84735e-05
2 *413:Y 8.84735e-05
3 *413:B2 *415:A 6.40939e-05
*RES
1 *413:Y *415:A 20.7649 
*END

*D_NET *141 0.00141658
*CONN
*I *415:B I *D sky130_fd_sc_hd__nand2_1
*I *414:Y O *D sky130_fd_sc_hd__o21ai_0
*CAP
1 *415:B 0.000348128
2 *414:Y 0.000348128
3 *415:B *402:A 8.17829e-06
4 *415:B *410:B 3.77568e-05
5 *415:B *414:B1 0.000186445
6 *415:B *417:A 0
7 *415:B *419:B1 0
8 *415:B *285:26 5.68317e-05
9 *415:B *298:101 5.1771e-05
10 *410:A *415:B 0.00015123
11 *413:B2 *415:B 2.58616e-05
12 *418:A1 *415:B 0.000123007
13 *525:D *415:B 1.83992e-05
14 *132:6 *415:B 6.08467e-05
*RES
1 *414:Y *415:B 37.8364 
*END

*D_NET *142 0.00213066
*CONN
*I *418:A2 I *D sky130_fd_sc_hd__a2111oi_4
*I *417:C I *D sky130_fd_sc_hd__nor3_1
*I *416:Y O *D sky130_fd_sc_hd__nand3_1
*CAP
1 *418:A2 0.000278791
2 *417:C 0.0002598
3 *416:Y 0
4 *142:4 0.000538592
5 *417:C *416:A 7.01935e-06
6 *417:C *416:B 2.58616e-05
7 *417:C *419:A2_N 1.83307e-05
8 *417:C *229:50 1.00981e-05
9 *417:C *232:14 4.1905e-05
10 *418:A2 *402:A 0.000302025
11 *418:A2 *417:A 2.04806e-05
12 *418:A2 *232:14 0.000111818
13 *418:A2 *232:25 0.000130126
14 *418:A2 *232:60 4.0752e-05
15 *418:A2 *233:16 0.000141245
16 *396:B1 *417:C 1.3388e-05
17 *407:B1 *417:C 2.05342e-06
18 *413:B2 *418:A2 0.000156136
19 *417:B *417:C 2.65667e-05
20 *418:A1 *418:A2 5.66868e-06
*RES
1 *416:Y *142:4 9.24915 
2 *142:4 *417:C 23.7852 
3 *142:4 *418:A2 28.4481 
*END

*D_NET *143 0.00166198
*CONN
*I *419:A2_N I *D sky130_fd_sc_hd__o2bb2ai_1
*I *417:Y O *D sky130_fd_sc_hd__nor3_1
*CAP
1 *419:A2_N 0.000456768
2 *417:Y 0.000456768
3 *419:A2_N *397:A 6.93349e-06
4 *419:A2_N *417:A 1.49516e-05
5 *419:A2_N *419:B1 0.000160647
6 *324:A *419:A2_N 0.00016195
7 *405:A1 *419:A2_N 4.64457e-05
8 *407:B1 *419:A2_N 2.77419e-05
9 *417:B *419:A2_N 2.32756e-05
10 *417:C *419:A2_N 1.83307e-05
11 *418:B1 *419:A2_N 0.000165049
12 *418:D1 *419:A2_N 7.56859e-06
13 *419:A1_N *419:A2_N 9.13654e-05
14 *419:B2 *419:A2_N 2.41827e-05
*RES
1 *417:Y *419:A2_N 40.7137 
*END

*D_NET *144 0.00122055
*CONN
*I *419:B1 I *D sky130_fd_sc_hd__o2bb2ai_1
*I *418:Y O *D sky130_fd_sc_hd__a2111oi_4
*CAP
1 *419:B1 0.000295946
2 *418:Y 0.000295946
3 *419:B1 *414:B1 0
4 *419:B1 *417:A 7.65861e-05
5 *419:B1 *232:35 0.000222149
6 *324:B *419:B1 1.03594e-05
7 *415:B *419:B1 0
8 *418:B1 *419:B1 4.0752e-05
9 *418:C1 *419:B1 0.000118166
10 *419:A2_N *419:B1 0.000160647
*RES
1 *418:Y *419:B1 37.1158 
*END

*D_NET *145 0.000393055
*CONN
*I *421:A1 I *D sky130_fd_sc_hd__mux2_2
*I *420:Y O *D sky130_fd_sc_hd__nor2_1
*CAP
1 *421:A1 0.000153163
2 *420:Y 0.000153163
3 *421:A1 *420:B 2.20471e-05
4 *421:A1 *421:S 6.46815e-05
*RES
1 *420:Y *421:A1 20.8855 
*END

*D_NET *146 0.000698036
*CONN
*I *423:A2 I *D sky130_fd_sc_hd__a22o_2
*I *421:X O *D sky130_fd_sc_hd__mux2_2
*CAP
1 *423:A2 0.000220862
2 *421:X 0.000220862
3 *423:A2 *424:S 0.000120767
4 *423:A2 *528:RESET_B 0
5 *423:A2 *147:36 0
6 *423:A2 *286:81 9.84787e-05
7 *527:D *423:A2 3.70659e-05
*RES
1 *421:X *423:A2 34.0321 
*END

*D_NET *147 0.00872961
*CONN
*I *473:A1 I *D sky130_fd_sc_hd__a221o_1
*I *459:A1 I *D sky130_fd_sc_hd__a21oi_1
*I *469:A1 I *D sky130_fd_sc_hd__a211o_2
*I *423:B1 I *D sky130_fd_sc_hd__a22o_2
*I *425:A2 I *D sky130_fd_sc_hd__a22o_2
*I *427:A2 I *D sky130_fd_sc_hd__a22o_2
*I *429:B1 I *D sky130_fd_sc_hd__a211oi_4
*I *422:Y O *D sky130_fd_sc_hd__nor2_4
*CAP
1 *473:A1 0.000345079
2 *459:A1 0
3 *469:A1 0.000184874
4 *423:B1 1.81726e-05
5 *425:A2 8.28996e-05
6 *427:A2 0.00014999
7 *429:B1 9.3487e-05
8 *422:Y 0.00134829
9 *147:71 0.000233165
10 *147:69 0.00174166
11 *147:36 0.000755742
12 *147:15 0.00100041
13 *147:6 0.000289237
14 *423:B1 *425:B2 4.66492e-05
15 *423:B1 *245:16 2.16355e-05
16 *425:A2 *425:B2 0.000234498
17 *425:A2 *245:16 0.000248982
18 *429:B1 *429:C1 0.000117741
19 *469:A1 *470:B1 2.30636e-05
20 *469:A1 *170:6 6.27782e-05
21 *469:A1 *170:12 0.000166378
22 *469:A1 *258:27 0
23 *473:A1 *460:A2 2.22342e-05
24 *473:A1 *460:B1 5.68225e-06
25 *473:A1 *473:A2 3.77804e-05
26 *473:A1 *473:C1 0.000181333
27 *473:A1 *171:31 2.61857e-05
28 *473:A1 *290:92 0.000271044
29 *147:15 *422:B 0
30 *147:15 *427:B2 0
31 *147:15 *428:A 0
32 *147:15 *263:39 0
33 *147:15 *296:84 0
34 *147:36 *423:B2 0.000178339
35 *147:36 *427:A1 0
36 *147:36 *479:B 0.000143161
37 *147:36 *244:12 4.72779e-05
38 *147:36 *263:39 0
39 *147:36 *263:50 0
40 *147:69 *422:B 5.04829e-06
41 *147:69 *457:A_N 3.6455e-05
42 *147:69 *457:B 1.14755e-05
43 *147:69 *645:A 3.47498e-05
44 *147:69 *171:10 1.00937e-05
45 *147:69 *173:12 0.000118166
46 *147:69 *286:44 1.41976e-05
47 *147:69 *290:56 0.000184734
48 *147:71 *458:B1 2.15656e-05
49 *147:71 *473:C1 8.62625e-06
50 *147:71 *170:12 1.07248e-05
51 *147:71 *171:31 9.34396e-06
52 *147:71 *258:27 0
53 *314:B1 *429:B1 0
54 *314:B1 *147:15 0
55 *423:A2 *147:36 0
56 *426:A1 *147:36 0
57 *527:D *147:36 0.000118485
58 *529:D *427:A2 4.00096e-05
59 *529:D *147:15 0
60 *529:D *147:36 0
61 *539:D *147:69 2.81717e-05
*RES
1 *422:Y *147:6 13.7491 
2 *147:6 *429:B1 7.1625 
3 *147:6 *147:15 4.73876 
4 *147:15 *427:A2 17.4867 
5 *147:15 *147:36 22.2581 
6 *147:36 *425:A2 13.7342 
7 *147:36 *423:B1 9.97254 
8 *422:Y *147:69 35.2099 
9 *147:69 *147:71 1.41674 
10 *147:71 *469:A1 19.0989 
11 *147:71 *459:A1 13.7491 
12 *147:69 *473:A1 31.016 
*END

*D_NET *148 0.00108786
*CONN
*I *425:B1 I *D sky130_fd_sc_hd__a22o_2
*I *424:X O *D sky130_fd_sc_hd__mux2_2
*CAP
1 *425:B1 0.000376163
2 *424:X 0.000376163
3 *425:B1 *424:S 2.65667e-05
4 *425:B1 *478:B 0.000123597
5 *425:B1 *527:CLK 5.03285e-05
6 *425:B1 *245:20 8.74104e-05
7 *424:A1 *425:B1 4.76347e-05
*RES
1 *424:X *425:B1 35.4576 
*END

*D_NET *149 0.000613366
*CONN
*I *427:B1 I *D sky130_fd_sc_hd__a22o_2
*I *426:X O *D sky130_fd_sc_hd__mux2_2
*CAP
1 *427:B1 0.000104962
2 *426:X 0.000104962
3 *427:B1 *489:RESET_B 2.41274e-06
4 *427:B1 *529:RESET_B 7.5108e-05
5 *427:B1 *296:84 0.000127179
6 *529:D *427:B1 0.000198742
*RES
1 *426:X *427:B1 31.7147 
*END

*D_NET *150 0.000549599
*CONN
*I *429:C1 I *D sky130_fd_sc_hd__a211oi_4
*I *428:Y O *D sky130_fd_sc_hd__nor2b_1
*CAP
1 *429:C1 0.000174941
2 *428:Y 0.000174941
3 *429:C1 *422:A 8.19762e-05
4 *429:B1 *429:C1 0.000117741
*RES
1 *428:Y *429:C1 31.6023 
*END

*D_NET *151 0.00175528
*CONN
*I *643:A I *D sky130_fd_sc_hd__buf_12
*I *429:Y O *D sky130_fd_sc_hd__a211oi_4
*CAP
1 *643:A 0.00078656
2 *429:Y 0.00078656
3 *643:A *454:B1 7.01935e-06
4 *643:A *284:6 6.27782e-05
5 *643:A *284:8 0.000112361
*RES
1 *429:Y *643:A 32.1765 
*END

*D_NET *152 0.00152181
*CONN
*P reset_n I
*I *670:A I *D sky130_fd_sc_hd__dlygate4sd3_1
*CAP
1 reset_n 0.000760903
2 *670:A 0.000760903
*RES
1 reset_n *670:A 22.193 
*END

*D_NET *153 0.000809923
*CONN
*I *433:A2 I *D sky130_fd_sc_hd__a21oi_2
*I *431:Y O *D sky130_fd_sc_hd__mux2i_1
*CAP
1 *433:A2 0.000327631
2 *431:Y 0.000327631
3 *433:A2 *435:A 7.06409e-05
4 *433:A2 *453:B 0
5 *433:A2 *538:CLK 1.09406e-05
6 *530:D *433:A2 7.30804e-05
*RES
1 *431:Y *433:A2 35.5252 
*END

*D_NET *154 0.000231424
*CONN
*I *433:B1 I *D sky130_fd_sc_hd__a21oi_2
*I *432:Y O *D sky130_fd_sc_hd__nor2_1
*CAP
1 *433:B1 5.85768e-05
2 *432:Y 5.85768e-05
3 *433:B1 *432:B 0.000114271
*RES
1 *432:Y *433:B1 20.3309 
*END

*D_NET *155 0.000883528
*CONN
*I *436:A2 I *D sky130_fd_sc_hd__a21oi_2
*I *434:Y O *D sky130_fd_sc_hd__mux2i_1
*CAP
1 *436:A2 0.000308866
2 *434:Y 0.000308866
3 *436:A2 *436:B1 4.31539e-05
4 *436:A2 *284:44 9.82896e-06
5 *436:A2 *284:54 4.79833e-05
6 *531:D *436:A2 0.000164829
*RES
1 *434:Y *436:A2 24.8401 
*END

*D_NET *156 0.00104946
*CONN
*I *436:B1 I *D sky130_fd_sc_hd__a21oi_2
*I *435:Y O *D sky130_fd_sc_hd__nor2_1
*CAP
1 *436:B1 0.000242256
2 *435:Y 0.000242256
3 *436:B1 *284:44 4.69192e-05
4 *436:B1 *287:30 0.000219249
5 *436:B1 *287:41 0.000255625
6 *436:A2 *436:B1 4.31539e-05
*RES
1 *435:Y *436:B1 26.0698 
*END

*D_NET *157 0.000625806
*CONN
*I *439:A2 I *D sky130_fd_sc_hd__a21oi_1
*I *437:Y O *D sky130_fd_sc_hd__mux2i_1
*CAP
1 *439:A2 0.000218983
2 *437:Y 0.000218983
3 *439:A2 *437:A0 6.92705e-05
4 *439:A2 *440:S 0
5 *439:A2 *531:RESET_B 0
6 *439:A2 *292:20 0
7 *439:A2 *292:55 6.50586e-05
8 *531:D *439:A2 0
9 *532:D *439:A2 5.35113e-05
*RES
1 *437:Y *439:A2 32.5452 
*END

*D_NET *158 0.000699439
*CONN
*I *439:B1 I *D sky130_fd_sc_hd__a21oi_1
*I *438:Y O *D sky130_fd_sc_hd__nor2_1
*CAP
1 *439:B1 0.000133216
2 *438:Y 0.000133216
3 *439:B1 *439:A1 4.76161e-06
4 *439:B1 *284:54 5.31074e-05
5 *439:B1 *284:60 0.000206258
6 *439:B1 *284:62 5.0715e-05
7 *532:D *439:B1 0.000118166
*RES
1 *438:Y *439:B1 23.6826 
*END

*D_NET *159 0.000690135
*CONN
*I *442:A2 I *D sky130_fd_sc_hd__a21oi_1
*I *440:Y O *D sky130_fd_sc_hd__mux2i_1
*CAP
1 *442:A2 0.000254336
2 *440:Y 0.000254336
3 *442:A2 *440:A0 6.92705e-05
4 *442:A2 *440:A1 0
5 *442:A2 *441:A 0
6 *442:A2 *533:RESET_B 0.000112193
7 *442:A2 *292:20 0
*RES
1 *440:Y *442:A2 34.6215 
*END

*D_NET *160 0.000391684
*CONN
*I *442:B1 I *D sky130_fd_sc_hd__a21oi_1
*I *441:Y O *D sky130_fd_sc_hd__nor2_1
*CAP
1 *442:B1 0.000127548
2 *441:Y 0.000127548
3 *442:B1 *441:B 6.92705e-05
4 *442:B1 *534:RESET_B 2.65667e-05
5 *442:B1 *284:64 4.0752e-05
*RES
1 *441:Y *442:B1 22.0188 
*END

*D_NET *161 0.000435552
*CONN
*I *445:A2 I *D sky130_fd_sc_hd__a21oi_1
*I *443:Y O *D sky130_fd_sc_hd__mux2i_1
*CAP
1 *445:A2 0.000194752
2 *443:Y 0.000194752
3 *445:A2 *443:A0 2.58757e-05
4 *534:D *445:A2 2.01727e-05
*RES
1 *443:Y *445:A2 31.854 
*END

*D_NET *162 0.00030841
*CONN
*I *445:B1 I *D sky130_fd_sc_hd__a21oi_1
*I *444:Y O *D sky130_fd_sc_hd__nor2_1
*CAP
1 *445:B1 0.0001161
2 *444:Y 0.0001161
3 *445:B1 *445:A1 5.31465e-05
4 *445:B1 *284:72 2.30636e-05
*RES
1 *444:Y *445:B1 21.4401 
*END

*D_NET *163 0.000188821
*CONN
*I *448:A2 I *D sky130_fd_sc_hd__a21oi_1
*I *446:Y O *D sky130_fd_sc_hd__mux2i_1
*CAP
1 *448:A2 6.35753e-05
2 *446:Y 6.35753e-05
3 *448:A2 *447:A 6.16701e-05
4 *448:A2 *450:A 0
5 *448:A2 *284:102 0
*RES
1 *446:Y *448:A2 20.355 
*END

*D_NET *164 0.000224308
*CONN
*I *448:B1 I *D sky130_fd_sc_hd__a21oi_1
*I *447:Y O *D sky130_fd_sc_hd__nor2_1
*CAP
1 *448:B1 1.12829e-05
2 *447:Y 1.12829e-05
3 *448:B1 *447:A 6.92705e-05
4 *448:B1 *447:B 0.000122378
5 *535:D *448:B1 1.00937e-05
*RES
1 *447:Y *448:B1 19.7763 
*END

*D_NET *165 0.000320832
*CONN
*I *451:A2 I *D sky130_fd_sc_hd__a21oi_1
*I *449:Y O *D sky130_fd_sc_hd__mux2i_1
*CAP
1 *451:A2 6.13887e-05
2 *449:Y 6.13887e-05
3 *451:A2 *449:A0 1.63649e-05
4 *451:A2 *451:B1 4.53458e-06
5 *451:A2 *287:85 0.000162958
6 *451:A2 *292:16 1.41976e-05
*RES
1 *449:Y *451:A2 20.9096 
*END

*D_NET *166 0.000473664
*CONN
*I *451:B1 I *D sky130_fd_sc_hd__a21oi_1
*I *450:Y O *D sky130_fd_sc_hd__nor2_1
*CAP
1 *451:B1 8.23609e-05
2 *450:Y 8.23609e-05
3 *451:B1 *450:A 0.000142389
4 *451:B1 *451:A1 1.37514e-05
5 *451:B1 *287:85 2.73051e-05
6 *451:A2 *451:B1 4.53458e-06
7 *536:D *451:B1 0.000120962
*RES
1 *450:Y *451:B1 22.7663 
*END

*D_NET *167 0.00173794
*CONN
*I *454:A1 I *D sky130_fd_sc_hd__o21ai_0
*I *452:Y O *D sky130_fd_sc_hd__inv_1
*CAP
1 *454:A1 0.000585871
2 *452:Y 0.000585871
3 *454:A1 *193:14 6.11291e-05
4 *454:A1 *296:110 0.000505072
*RES
1 *452:Y *454:A1 37.9561 
*END

*D_NET *168 0.00121066
*CONN
*I *454:B1 I *D sky130_fd_sc_hd__o21ai_0
*I *453:Y O *D sky130_fd_sc_hd__nand3b_1
*CAP
1 *454:B1 0.000480562
2 *453:Y 0.000480562
3 *454:B1 *453:C 7.69213e-05
4 *454:B1 *454:A2 0.000141398
5 *454:B1 *284:8 2.41961e-05
6 *643:A *454:B1 7.01935e-06
*RES
1 *453:Y *454:B1 37.6732 
*END

*D_NET *169 0.000708405
*CONN
*I *462:A1 I *D sky130_fd_sc_hd__o21ai_0
*I *461:B I *D sky130_fd_sc_hd__nand3_1
*I *455:Y O *D sky130_fd_sc_hd__inv_1
*CAP
1 *462:A1 2.02784e-05
2 *461:B 5.62424e-05
3 *455:Y 0
4 *169:4 7.65208e-05
5 *461:B *455:A 6.32655e-05
6 *461:B *462:B1 0.000139986
7 *461:B *463:A 4.05158e-05
8 *461:B *542:CLK 4.99471e-05
9 *462:A1 *455:A 8.9116e-05
10 *462:A1 *462:B1 0.000123073
11 *462:A1 *259:10 4.94594e-05
*RES
1 *455:Y *169:4 9.24915 
2 *169:4 *461:B 11.9378 
3 *169:4 *462:A1 10.8044 
*END

*D_NET *170 0.00444835
*CONN
*I *469:A2 I *D sky130_fd_sc_hd__a211o_2
*I *458:A2 I *D sky130_fd_sc_hd__a21oi_1
*I *468:A2 I *D sky130_fd_sc_hd__a21oi_1
*I *473:A2 I *D sky130_fd_sc_hd__a221o_1
*I *466:B I *D sky130_fd_sc_hd__nand2_1
*I *460:A2 I *D sky130_fd_sc_hd__o21ai_0
*I *459:A2 I *D sky130_fd_sc_hd__a21oi_1
*I *456:Y O *D sky130_fd_sc_hd__nor2_2
*CAP
1 *469:A2 0
2 *458:A2 0
3 *468:A2 3.59876e-05
4 *473:A2 0.000117344
5 *466:B 2.35321e-05
6 *460:A2 0.00018207
7 *459:A2 0
8 *456:Y 0.000120891
9 *170:29 0.000205603
10 *170:27 0.000282429
11 *170:23 0.000240309
12 *170:19 9.22948e-05
13 *170:12 0.000151959
14 *170:6 0.000219791
15 *460:A2 *460:B1 0.000144774
16 *460:A2 *466:A 0.000477015
17 *460:A2 *473:B2 0
18 *460:A2 *473:C1 1.75625e-05
19 *460:A2 *290:92 0.000472818
20 *466:B *466:A 0.00014923
21 *466:B *290:92 0.000163428
22 *468:A2 *467:A 7.06733e-06
23 *468:A2 *468:A1 5.31074e-05
24 *468:A2 *261:22 1.41976e-05
25 *473:A2 *473:B1 3.67528e-06
26 *473:A2 *473:B2 2.41667e-05
27 *473:A2 *473:C1 0
28 *473:A2 *261:22 0.000100913
29 *170:6 *470:B1 0.000109421
30 *170:12 *458:B1 2.95757e-05
31 *170:12 *469:B1 2.87069e-05
32 *170:19 *459:B1 0.000100177
33 *170:19 *468:A1 1.65872e-05
34 *170:19 *469:B1 6.04406e-05
35 *170:19 *469:C1 5.04829e-06
36 *170:19 *171:10 7.90978e-05
37 *170:19 *173:12 5.51483e-06
38 *170:23 *459:B1 0
39 *170:23 *468:A1 0.00011818
40 *170:23 *469:C1 7.68538e-06
41 *170:23 *171:10 0
42 *170:27 *469:C1 3.14544e-05
43 *170:27 *473:C1 0
44 *170:27 *261:22 0.000100655
45 *308:B *460:A2 0
46 *467:B_N *468:A2 1.05106e-05
47 *468:B1 *468:A2 4.88171e-05
48 *468:B1 *170:23 3.75217e-05
49 *469:A1 *170:6 6.27782e-05
50 *469:A1 *170:12 0.000166378
51 *473:A1 *460:A2 2.22342e-05
52 *473:A1 *473:A2 3.77804e-05
53 *79:20 *460:A2 1.92336e-05
54 *79:20 *473:A2 3.96594e-05
55 *147:71 *170:12 1.07248e-05
*RES
1 *456:Y *170:6 12.7456 
2 *170:6 *170:12 12.0778 
3 *170:12 *459:A2 9.24915 
4 *170:12 *170:19 2.38721 
5 *170:19 *170:23 1.85672 
6 *170:23 *170:27 8.82351 
7 *170:27 *170:29 4.5 
8 *170:29 *460:A2 27.5374 
9 *170:29 *466:B 11.0817 
10 *170:27 *473:A2 17.285 
11 *170:23 *468:A2 11.1059 
12 *170:19 *458:A2 9.24915 
13 *170:6 *469:A2 9.24915 
*END

*D_NET *171 0.00323853
*CONN
*I *460:B1 I *D sky130_fd_sc_hd__o21ai_0
*I *466:A I *D sky130_fd_sc_hd__nand2_1
*I *468:A1 I *D sky130_fd_sc_hd__a21oi_1
*I *458:A1 I *D sky130_fd_sc_hd__a21oi_1
*I *457:Y O *D sky130_fd_sc_hd__nand2b_1
*CAP
1 *460:B1 0.000182046
2 *466:A 0.000239547
3 *468:A1 0.000130548
4 *458:A1 0
5 *457:Y 0.000317245
6 *171:31 0.00051955
7 *171:10 0.000349836
8 *460:B1 *458:B1 8.68133e-05
9 *460:B1 *473:B2 0
10 *460:B1 *473:C1 0
11 *460:B1 *285:42 5.22654e-06
12 *466:A *458:B1 0.000103123
13 *466:A *290:92 6.51243e-05
14 *171:10 *457:B 0
15 *171:10 *459:B1 6.22539e-05
16 *171:31 *458:B1 2.71542e-05
17 *171:31 *258:27 0
18 *308:B *460:B1 0
19 *460:A2 *460:B1 0.000144774
20 *460:A2 *466:A 0.000477015
21 *466:B *466:A 0.00014923
22 *468:A2 *468:A1 5.31074e-05
23 *473:A1 *460:B1 5.68225e-06
24 *473:A1 *171:31 2.61857e-05
25 *79:20 *460:B1 6.07648e-05
26 *147:69 *171:10 1.00937e-05
27 *147:71 *171:31 9.34396e-06
28 *170:19 *468:A1 1.65872e-05
29 *170:19 *171:10 7.90978e-05
30 *170:23 *468:A1 0.00011818
31 *170:23 *171:10 0
*RES
1 *457:Y *171:10 14.0477 
2 *171:10 *458:A1 9.24915 
3 *171:10 *468:A1 11.6364 
4 *457:Y *171:31 16.4116 
5 *171:31 *466:A 22.8157 
6 *171:31 *460:B1 19.2771 
*END

*D_NET *172 0.00196604
*CONN
*I *469:B1 I *D sky130_fd_sc_hd__a211o_2
*I *459:B1 I *D sky130_fd_sc_hd__a21oi_1
*I *473:C1 I *D sky130_fd_sc_hd__a221o_1
*I *458:Y O *D sky130_fd_sc_hd__a21oi_1
*CAP
1 *469:B1 0.000110144
2 *459:B1 6.391e-05
3 *473:C1 0.00023774
4 *458:Y 0.00023774
5 *172:22 0.000174054
6 *459:B1 *457:B 0
7 *459:B1 *173:12 0.000257267
8 *469:B1 *458:B1 2.22198e-05
9 *469:B1 *469:C1 0.000187058
10 *469:B1 *173:12 7.66037e-05
11 *473:C1 *458:B1 7.14746e-05
12 *473:C1 *473:B1 3.67528e-06
13 *473:C1 *173:12 6.50586e-05
14 *460:A2 *473:C1 1.75625e-05
15 *460:B1 *473:C1 0
16 *473:A1 *473:C1 0.000181333
17 *473:A2 *473:C1 0
18 *147:71 *473:C1 8.62625e-06
19 *170:12 *469:B1 2.87069e-05
20 *170:19 *459:B1 0.000100177
21 *170:19 *469:B1 6.04406e-05
22 *170:23 *459:B1 0
23 *170:27 *473:C1 0
24 *171:10 *459:B1 6.22539e-05
*RES
1 *458:Y *473:C1 33.791 
2 *458:Y *172:22 9.24915 
3 *172:22 *459:B1 12.6491 
4 *172:22 *469:B1 22.5861 
*END

*D_NET *173 0.0069433
*CONN
*I *465:A2 I *D sky130_fd_sc_hd__o21ai_0
*I *462:A2 I *D sky130_fd_sc_hd__o21ai_0
*I *474:A2 I *D sky130_fd_sc_hd__a32o_1
*I *470:A2 I *D sky130_fd_sc_hd__a32o_1
*I *459:Y O *D sky130_fd_sc_hd__a21oi_1
*CAP
1 *465:A2 0.000523408
2 *462:A2 0
3 *474:A2 5.55774e-05
4 *470:A2 0.00012783
5 *459:Y 0.000545738
6 *173:40 0.000924677
7 *173:23 0.000574844
8 *173:12 0.000791565
9 *465:A2 *463:A 4.73933e-05
10 *465:A2 *465:A1 4.6489e-05
11 *465:A2 *542:CLK 0.000521459
12 *465:A2 *259:25 6.84074e-06
13 *470:A2 *470:A1 0
14 *470:A2 *470:A3 0.00013534
15 *470:A2 *470:B2 2.48602e-05
16 *470:A2 *544:CLK 5.92192e-05
17 *474:A2 *307:B 0.000208606
18 *474:A2 *474:A3 0.000164829
19 *474:A2 *474:B1 1.41291e-05
20 *173:12 *469:C1 6.50727e-05
21 *173:12 *261:8 1.4091e-06
22 *173:23 *544:CLK 0.000175674
23 *173:23 *545:CLK 0.000151326
24 *173:40 *545:CLK 0.000163492
25 *173:40 *259:25 6.60603e-05
26 *459:B1 *173:12 0.000257267
27 *468:B1 *173:12 8.07194e-05
28 *469:B1 *173:12 7.66037e-05
29 *473:C1 *173:12 6.50586e-05
30 *543:D *465:A2 0.000122378
31 *544:D *470:A2 0
32 *34:10 *173:23 7.44607e-05
33 *34:10 *173:40 0.000299095
34 *34:16 *470:A2 5.56367e-05
35 *34:16 *173:12 0.000141714
36 *34:16 *173:23 0.000250845
37 *147:69 *173:12 0.000118166
38 *170:19 *173:12 5.51483e-06
*RES
1 *459:Y *173:12 25.2029 
2 *173:12 *470:A2 18.0727 
3 *173:12 *173:23 5.98452 
4 *173:23 *474:A2 16.7151 
5 *173:23 *173:40 11.7492 
6 *173:40 *462:A2 13.7491 
7 *173:40 *465:A2 24.98 
*END

*D_NET *174 0.00223496
*CONN
*I *473:B1 I *D sky130_fd_sc_hd__a221o_1
*I *461:C I *D sky130_fd_sc_hd__nand3_1
*I *464:C I *D sky130_fd_sc_hd__nand3_1
*I *460:Y O *D sky130_fd_sc_hd__o21ai_0
*CAP
1 *473:B1 0.000259837
2 *461:C 0.000279527
3 *464:C 0
4 *460:Y 0
5 *174:10 0.000492204
6 *174:4 0.000472514
7 *461:C *465:B1 0
8 *461:C *285:32 0.000295302
9 *461:C *285:42 0.000143354
10 *473:B1 *473:B2 0
11 *473:B1 *285:42 0
12 *174:10 *285:42 8.25705e-05
13 *473:A2 *473:B1 3.67528e-06
14 *473:C1 *473:B1 3.67528e-06
15 *79:20 *473:B1 0.000202304
*RES
1 *460:Y *174:4 9.24915 
2 *174:4 *174:10 14.5693 
3 *174:10 *464:C 9.24915 
4 *174:10 *461:C 26.3719 
5 *174:4 *473:B1 23.1623 
*END

*D_NET *175 0.000755883
*CONN
*I *462:B1 I *D sky130_fd_sc_hd__o21ai_0
*I *461:Y O *D sky130_fd_sc_hd__nand3_1
*CAP
1 *462:B1 0.00016286
2 *461:Y 0.00016286
3 *462:B1 *463:A 6.50586e-05
4 *462:B1 *259:10 0.000102045
5 *461:B *462:B1 0.000139986
6 *462:A1 *462:B1 0.000123073
*RES
1 *461:Y *462:B1 23.6826 
*END

*D_NET *176 0.000371795
*CONN
*I *465:A1 I *D sky130_fd_sc_hd__o21ai_0
*I *463:Y O *D sky130_fd_sc_hd__inv_1
*CAP
1 *465:A1 0.000144613
2 *463:Y 0.000144613
3 *465:A1 *463:A 2.59857e-05
4 *465:A2 *465:A1 4.6489e-05
5 *543:D *465:A1 1.00937e-05
*RES
1 *463:Y *465:A1 22.2961 
*END

*D_NET *177 0.000213825
*CONN
*I *465:B1 I *D sky130_fd_sc_hd__o21ai_0
*I *464:Y O *D sky130_fd_sc_hd__nand3_1
*CAP
1 *465:B1 0.000106912
2 *464:Y 0.000106912
3 *461:C *465:B1 0
*RES
1 *464:Y *465:B1 29.7455 
*END

*D_NET *178 0.00223541
*CONN
*I *474:A1 I *D sky130_fd_sc_hd__a32o_1
*I *470:A1 I *D sky130_fd_sc_hd__a32o_1
*I *466:Y O *D sky130_fd_sc_hd__nand2_1
*CAP
1 *474:A1 8.96577e-05
2 *470:A1 0.000365039
3 *466:Y 0.000362515
4 *178:8 0.000817212
5 *470:A1 *470:B1 7.86958e-05
6 *470:A1 *470:B2 8.22396e-05
7 *470:A1 *544:CLK 0
8 *470:A1 *298:10 0
9 *470:A1 *298:17 0
10 *474:A1 *545:CLK 0
11 *474:A1 *298:17 0
12 *178:8 *290:92 0.000311927
13 *470:A2 *470:A1 0
14 *544:D *470:A1 0.000128126
*RES
1 *466:Y *178:8 19.464 
2 *178:8 *470:A1 23.7819 
3 *178:8 *474:A1 15.5811 
*END

*D_NET *179 0.000539058
*CONN
*I *470:A3 I *D sky130_fd_sc_hd__a32o_1
*I *467:Y O *D sky130_fd_sc_hd__nor2b_1
*CAP
1 *470:A3 0.000118616
2 *467:Y 0.000118616
3 *470:A3 *261:8 0.000116553
4 *470:A2 *470:A3 0.00013534
5 *34:16 *470:A3 4.9933e-05
*RES
1 *467:Y *470:A3 31.4388 
*END

*D_NET *180 0.000625371
*CONN
*I *469:C1 I *D sky130_fd_sc_hd__a211o_2
*I *468:Y O *D sky130_fd_sc_hd__a21oi_1
*CAP
1 *469:C1 0.000154289
2 *468:Y 0.000154289
3 *469:C1 *458:B1 4.3116e-06
4 *468:B1 *469:C1 1.61631e-05
5 *469:B1 *469:C1 0.000187058
6 *170:19 *469:C1 5.04829e-06
7 *170:23 *469:C1 7.68538e-06
8 *170:27 *469:C1 3.14544e-05
9 *173:12 *469:C1 6.50727e-05
*RES
1 *468:Y *469:C1 32.1299 
*END

*D_NET *181 0.00136424
*CONN
*I *470:B1 I *D sky130_fd_sc_hd__a32o_1
*I *469:X O *D sky130_fd_sc_hd__a211o_2
*CAP
1 *470:B1 0.000440491
2 *469:X 0.000440491
3 *469:A1 *470:B1 2.30636e-05
4 *470:A1 *470:B1 7.86958e-05
5 *544:D *470:B1 0.000272078
6 *170:6 *470:B1 0.000109421
*RES
1 *469:X *470:B1 29.9159 
*END

*D_NET *182 0.00144327
*CONN
*I *472:B I *D sky130_fd_sc_hd__nor2_1
*I *473:B2 I *D sky130_fd_sc_hd__a221o_1
*I *471:Y O *D sky130_fd_sc_hd__nand3_1
*CAP
1 *472:B 0.0001023
2 *473:B2 0.000470231
3 *471:Y 0.000572531
4 *472:B *472:A 4.76161e-06
5 *473:B2 *307:A 3.01683e-06
6 *473:B2 *471:B 2.78496e-05
7 *473:B2 *474:B1 6.08467e-05
8 *473:B2 *261:22 9.04224e-05
9 *460:A2 *473:B2 0
10 *460:B1 *473:B2 0
11 *473:A2 *473:B2 2.41667e-05
12 *473:B1 *473:B2 0
13 *79:20 *473:B2 8.71398e-05
*RES
1 *471:Y *473:B2 37.4724 
2 *471:Y *472:B 20.9337 
*END

*D_NET *183 0.000927345
*CONN
*I *474:A3 I *D sky130_fd_sc_hd__a32o_1
*I *472:Y O *D sky130_fd_sc_hd__nor2_1
*CAP
1 *474:A3 0.000120394
2 *472:Y 0.000120394
3 *474:A3 *307:B 3.31745e-05
4 *474:A3 *471:A 3.2464e-05
5 *474:A3 *474:B1 0.000262339
6 *474:A2 *474:A3 0.000164829
7 *34:10 *474:A3 0.000143563
8 *79:20 *474:A3 5.0187e-05
*RES
1 *472:Y *474:A3 33.1026 
*END

*D_NET *184 0.00157333
*CONN
*I *474:B1 I *D sky130_fd_sc_hd__a32o_1
*I *473:X O *D sky130_fd_sc_hd__a221o_1
*CAP
1 *474:B1 0.000409215
2 *473:X 0.000409215
3 *474:B1 *307:A 1.05106e-05
4 *474:B1 *307:B 2.90062e-05
5 *474:B1 *471:A 0.000132464
6 *474:B1 *261:22 2.06983e-05
7 *307:C *474:B1 0.000201959
8 *473:B2 *474:B1 6.08467e-05
9 *474:A2 *474:B1 1.41291e-05
10 *474:A3 *474:B1 0.000262339
11 *79:20 *474:B1 2.29454e-05
*RES
1 *473:X *474:B1 29.3854 
*END

*D_NET *185 0.000770813
*CONN
*I *477:A2 I *D sky130_fd_sc_hd__o21ai_0
*I *475:Y O *D sky130_fd_sc_hd__mux2i_1
*CAP
1 *477:A2 0.000227889
2 *475:Y 0.000227889
3 *477:A2 *475:A0 1.79672e-05
4 *477:A2 *475:S 4.07936e-05
5 *477:A2 *235:21 2.39519e-05
6 *477:A2 *235:34 4.90829e-05
7 *475:A1 *477:A2 3.14978e-05
8 *547:D *477:A2 0.000151741
*RES
1 *475:Y *477:A2 34.3697 
*END

*D_NET *186 0.000444586
*CONN
*I *477:B1 I *D sky130_fd_sc_hd__o21ai_0
*I *476:Y O *D sky130_fd_sc_hd__nand3_1
*CAP
1 *477:B1 5.28708e-05
2 *476:Y 5.28708e-05
3 *477:B1 *311:A1 0.000179385
4 *477:B1 *476:A 2.71651e-05
5 *477:B1 *258:43 0.000118166
6 *311:B1 *477:B1 1.41291e-05
*RES
1 *476:Y *477:B1 21.4642 
*END

*D_NET *187 0.00059823
*CONN
*I *479:B I *D sky130_fd_sc_hd__ha_1
*I *478:COUT O *D sky130_fd_sc_hd__ha_1
*CAP
1 *479:B 0.000207664
2 *478:COUT 0.000207664
3 *479:B *478:A 2.97979e-05
4 *479:B *244:21 9.94284e-06
5 *147:36 *479:B 0.000143161
*RES
1 *478:COUT *479:B 31.9934 
*END

*D_NET *188 0.000602041
*CONN
*I *481:B I *D sky130_fd_sc_hd__ha_1
*I *480:COUT O *D sky130_fd_sc_hd__ha_1
*CAP
1 *481:B 0.000227004
2 *480:COUT 0.000227004
3 *481:B *520:CLK 3.55816e-05
4 *481:B *298:167 9.905e-05
5 *481:B *303:66 8.36429e-06
6 *364:A *481:B 0
7 *25:8 *481:B 5.03748e-06
*RES
1 *480:COUT *481:B 32.9604 
*END

*D_NET *190 0.00309949
*CONN
*I *318:C I *D sky130_fd_sc_hd__nand3_2
*I *644:A I *D sky130_fd_sc_hd__buf_4
*I *486:Q O *D sky130_fd_sc_hd__dfrtp_1
*CAP
1 *318:C 0.000193289
2 *644:A 0
3 *486:Q 0.00109284
4 *190:20 0.00128613
5 *318:C *229:58 0
6 *318:C *285:14 1.1573e-05
7 *190:20 *326:A1 8.28915e-05
8 *190:20 *233:62 0.00022355
9 *190:20 *233:71 9.34412e-05
10 *397:B *318:C 0
11 *407:A1 *318:C 5.04829e-06
12 *407:A1 *190:20 0
13 *32:12 *318:C 0
14 *32:23 *318:C 0
15 *85:47 *318:C 2.22342e-05
16 *123:6 *318:C 1.92172e-05
17 *123:6 *190:20 6.92705e-05
18 *125:10 *318:C 0
19 *133:16 *318:C 0
*RES
1 *486:Q *190:20 29.4319 
2 *190:20 *644:A 9.24915 
3 *190:20 *318:C 22.8808 
*END

*D_NET *191 0.00424371
*CONN
*I *483:A I *D sky130_fd_sc_hd__ha_1
*I *343:B I *D sky130_fd_sc_hd__nand3_1
*I *348:A I *D sky130_fd_sc_hd__inv_1
*I *339:A I *D sky130_fd_sc_hd__nor2_1
*I *487:Q O *D sky130_fd_sc_hd__dfrtp_1
*CAP
1 *483:A 8.43047e-05
2 *343:B 0.000403254
3 *348:A 1.2641e-05
4 *339:A 0.000148055
5 *487:Q 0.000380769
6 *191:31 0.000666969
7 *191:25 0.000471254
8 *191:10 0.0006647
9 *339:A *283:20 0.000410556
10 *343:B *343:C 0.000255298
11 *348:A *349:A 2.6874e-05
12 *483:A *483:B 1.61631e-05
13 *483:A *293:119 2.85139e-05
14 *191:25 *488:RESET_B 0
15 *191:31 *483:B 5.31074e-05
16 *191:31 *488:RESET_B 7.65861e-05
17 *191:31 *488:CLK 0
18 *191:31 *192:6 0.000217937
19 *191:31 *192:10 0
20 *342:B *191:25 0
21 *351:C *343:B 0.000171805
22 *488:D *191:31 0
23 *27:12 *343:B 0.000122083
24 *28:12 *343:B 1.49697e-05
25 *31:10 *483:A 1.41976e-05
26 *31:10 *191:25 3.67528e-06
27 *105:10 *343:B 0
*RES
1 *487:Q *191:10 20.0474 
2 *191:10 *339:A 18.3548 
3 *191:10 *191:25 7.74122 
4 *191:25 *191:31 11.3501 
5 *191:31 *348:A 14.0686 
6 *191:31 *343:B 24.6913 
7 *191:25 *483:A 11.6605 
*END

*D_NET *192 0.00254987
*CONN
*I *483:B I *D sky130_fd_sc_hd__ha_1
*I *343:C I *D sky130_fd_sc_hd__nand3_1
*I *349:A I *D sky130_fd_sc_hd__inv_1
*I *488:Q O *D sky130_fd_sc_hd__dfrtp_1
*CAP
1 *483:B 1.92784e-05
2 *343:C 0.000160821
3 *349:A 0.000234853
4 *488:Q 0.0001283
5 *192:10 0.000533519
6 *192:6 0.000285423
7 *343:C *293:119 8.47675e-05
8 *192:6 *488:RESET_B 0.000111208
9 *192:10 *488:RESET_B 1.50262e-05
10 *192:10 *293:119 8.07794e-05
11 *343:B *343:C 0.000255298
12 *348:A *349:A 2.6874e-05
13 *351:C *343:C 0.000264614
14 *483:A *483:B 1.61631e-05
15 *27:12 *343:C 3.25751e-05
16 *27:12 *349:A 1.82895e-05
17 *28:12 *349:A 1.10348e-05
18 *31:10 *192:10 0
19 *191:31 *483:B 5.31074e-05
20 *191:31 *192:6 0.000217937
21 *191:31 *192:10 0
*RES
1 *488:Q *192:6 13.8548 
2 *192:6 *192:10 8.40826 
3 *192:10 *349:A 19.253 
4 *192:10 *343:C 20.184 
5 *192:6 *483:B 9.97254 
*END

*D_NET *193 0.00524028
*CONN
*I *346:B I *D sky130_fd_sc_hd__nand3_1
*I *336:B I *D sky130_fd_sc_hd__nand2b_1
*I *343:A I *D sky130_fd_sc_hd__nand3_1
*I *341:A I *D sky130_fd_sc_hd__xnor2_1
*I *350:B I *D sky130_fd_sc_hd__nand3_1
*I *489:Q O *D sky130_fd_sc_hd__dfrtp_1
*CAP
1 *346:B 0
2 *336:B 4.6121e-05
3 *343:A 0
4 *341:A 0.000203923
5 *350:B 7.13771e-05
6 *489:Q 0.000895418
7 *193:33 0.000274245
8 *193:20 0.000211145
9 *193:18 0.000362838
10 *193:14 0.00114269
11 *336:B *194:27 1.47046e-05
12 *341:A *194:21 0
13 *350:B *350:A 5.04829e-06
14 *350:B *194:27 4.76161e-06
15 *193:14 *346:A 6.27782e-05
16 *193:14 *489:RESET_B 7.61196e-05
17 *193:14 *491:CLK 0.000560065
18 *193:14 *291:10 0.000249953
19 *193:14 *291:12 0.000169684
20 *193:14 *291:20 0.000144659
21 *193:14 *296:110 3.49168e-06
22 *193:18 *346:A 1.15389e-05
23 *193:18 *194:27 0.000319041
24 *193:20 *350:A 1.88563e-05
25 *193:20 *194:27 6.27718e-05
26 *342:B *341:A 5.07314e-05
27 *344:B *341:A 3.58185e-05
28 *346:C *336:B 1.47046e-05
29 *346:C *350:B 1.10656e-05
30 *351:C *336:B 1.53954e-05
31 *351:C *341:A 3.25618e-05
32 *351:C *193:33 0.000107643
33 *454:A1 *193:14 6.11291e-05
34 *489:D *193:14 0
35 *31:10 *341:A 0
36 *31:21 *341:A 0
*RES
1 *489:Q *193:14 45.6238 
2 *193:14 *193:18 4.62973 
3 *193:18 *193:20 1.278 
4 *193:20 *350:B 10.5513 
5 *193:20 *193:33 6.74725 
6 *193:33 *341:A 19.49 
7 *193:33 *343:A 13.7491 
8 *193:18 *336:B 19.4255 
9 *193:14 *346:B 9.24915 
*END

*D_NET *194 0.00496181
*CONN
*I *346:A I *D sky130_fd_sc_hd__nand3_1
*I *336:A_N I *D sky130_fd_sc_hd__nand2b_1
*I *350:A I *D sky130_fd_sc_hd__nand3_1
*I *344:A I *D sky130_fd_sc_hd__xor2_1
*I *490:Q O *D sky130_fd_sc_hd__dfrtp_1
*CAP
1 *346:A 4.63795e-05
2 *336:A_N 0
3 *350:A 1.49466e-05
4 *344:A 0.000200563
5 *490:Q 0.000922212
6 *194:27 0.000107047
7 *194:21 0.000396029
8 *194:6 0.00138032
9 *194:6 *345:A 5.51483e-06
10 *194:6 *490:RESET_B 9.27233e-05
11 *194:6 *490:CLK 0.0001674
12 *194:21 *283:10 0.000350816
13 *194:21 *283:16 8.01987e-05
14 *336:B *194:27 1.47046e-05
15 *341:A *194:21 0
16 *344:B *194:21 0
17 *345:B *344:A 5.04829e-06
18 *345:B *194:6 6.23875e-05
19 *346:C *350:A 6.46815e-05
20 *346:C *194:27 0.00014006
21 *350:B *350:A 5.04829e-06
22 *350:B *194:27 4.76161e-06
23 *490:D *194:6 0.000425976
24 *193:14 *346:A 6.27782e-05
25 *193:18 *346:A 1.15389e-05
26 *193:18 *194:27 0.000319041
27 *193:20 *350:A 1.88563e-05
28 *193:20 *194:27 6.27718e-05
*RES
1 *490:Q *194:6 24.9468 
2 *194:6 *344:A 12.625 
3 *194:6 *194:21 16.6455 
4 *194:21 *194:27 5.20845 
5 *194:27 *350:A 9.97254 
6 *194:27 *336:A_N 9.24915 
7 *194:21 *346:A 10.5271 
*END

*D_NET *195 0.00359661
*CONN
*I *350:C I *D sky130_fd_sc_hd__nand3_1
*I *337:B I *D sky130_fd_sc_hd__nor4_2
*I *347:A I *D sky130_fd_sc_hd__xnor2_1
*I *491:Q O *D sky130_fd_sc_hd__dfrtp_1
*CAP
1 *350:C 0.000172881
2 *337:B 7.49772e-05
3 *347:A 0
4 *491:Q 0.000877618
5 *195:21 0.000606669
6 *195:12 0.00123643
7 *350:C *293:119 4.75329e-05
8 *195:12 *491:RESET_B 2.64021e-05
9 *195:12 *491:CLK 2.78496e-05
10 *195:12 *283:10 1.22289e-05
11 *337:C *337:B 5.79081e-05
12 *337:C *350:C 4.92606e-05
13 *337:D *195:21 0.00016195
14 *347:B *195:12 0.000126335
15 *351:C *350:C 4.89548e-05
16 *491:D *195:12 2.57847e-05
17 *31:21 *350:C 8.36586e-06
18 *104:29 *350:C 3.54581e-05
*RES
1 *491:Q *195:12 32.7271 
2 *195:12 *347:A 9.24915 
3 *195:12 *195:21 7.95736 
4 *195:21 *337:B 11.6605 
5 *195:21 *350:C 23.8641 
*END

*D_NET *196 0.00243518
*CONN
*I *353:A I *D sky130_fd_sc_hd__nand2_1
*I *337:A I *D sky130_fd_sc_hd__nor4_2
*I *357:A I *D sky130_fd_sc_hd__and3_1
*I *352:A I *D sky130_fd_sc_hd__xor2_1
*I *492:Q O *D sky130_fd_sc_hd__dfrtp_1
*CAP
1 *353:A 6.4322e-05
2 *337:A 0.000131425
3 *357:A 0.000120762
4 *352:A 5.33796e-05
5 *492:Q 2.85432e-05
6 *196:32 0.0005384
7 *196:17 0.000471506
8 *196:6 9.0014e-05
9 *337:A *197:35 8.36586e-06
10 *337:A *293:119 7.46068e-05
11 *357:A *198:14 8.62474e-06
12 *346:C *353:A 1.78477e-05
13 *353:B *353:A 5.14506e-05
14 *357:C *357:A 0.000183809
15 *492:D *196:6 0.000114271
16 *492:D *196:17 6.27718e-05
17 *492:D *196:32 0.000209492
18 *106:10 *337:A 5.35603e-05
19 *106:10 *353:A 3.96696e-05
20 *106:10 *196:32 0.000112361
*RES
1 *492:Q *196:6 10.5271 
2 *196:6 *352:A 10.919 
3 *196:6 *196:17 0.723396 
4 *196:17 *357:A 21.7421 
5 *196:17 *196:32 8.51196 
6 *196:32 *337:A 21.7421 
7 *196:32 *353:A 11.6605 
*END

*D_NET *197 0.00576919
*CONN
*I *355:A I *D sky130_fd_sc_hd__or3_1
*I *357:B I *D sky130_fd_sc_hd__and3_1
*I *359:B I *D sky130_fd_sc_hd__nand2_1
*I *335:B I *D sky130_fd_sc_hd__nand4b_1
*I *354:B1 I *D sky130_fd_sc_hd__o21ai_0
*I *493:Q O *D sky130_fd_sc_hd__dfrtp_1
*CAP
1 *355:A 9.36721e-06
2 *357:B 0
3 *359:B 0.000569205
4 *335:B 1.68559e-05
5 *354:B1 8.58313e-06
6 *493:Q 0.000580282
7 *197:46 0.000913047
8 *197:35 0.000580317
9 *197:16 0.000463853
10 *197:10 0.000825299
11 *335:B *335:C 7.01935e-06
12 *355:A *300:8 6.50586e-05
13 *359:B *335:A_N 4.40807e-05
14 *359:B *494:RESET_B 5.18471e-05
15 *359:B *198:14 1.83992e-05
16 *197:10 *493:RESET_B 0.000104115
17 *197:10 *300:34 0.00027279
18 *197:16 *293:119 0
19 *197:35 *293:119 3.35162e-05
20 *197:46 *335:A_N 7.34094e-05
21 *335:D *335:B 5.04829e-06
22 *335:D *197:46 0.00013217
23 *337:A *197:35 8.36586e-06
24 *337:C *197:35 6.27782e-05
25 *355:B *197:16 2.692e-05
26 *356:A1 *355:A 6.50586e-05
27 *356:B1 *197:10 2.1203e-06
28 *356:B1 *197:16 0.000248086
29 *362:A *335:B 5.5152e-06
30 *362:A *197:35 4.24488e-05
31 *493:D *197:10 0
32 *494:D *359:B 0
33 *642:A *197:16 6.50586e-05
34 *104:29 *197:16 1.02704e-05
35 *104:35 *354:B1 6.3657e-05
36 *104:35 *197:16 0.000225011
37 *104:35 *197:35 2.42273e-05
38 *106:10 *197:35 0.000145413
*RES
1 *493:Q *197:10 24.8967 
2 *197:10 *197:16 12.044 
3 *197:16 *354:B1 9.97254 
4 *197:16 *197:35 15.7979 
5 *197:35 *335:B 9.93637 
6 *197:35 *197:46 6.52262 
7 *197:46 *359:B 28.4563 
8 *197:46 *357:B 9.24915 
9 *197:10 *355:A 14.4725 
*END

*D_NET *198 0.00112264
*CONN
*I *335:A_N I *D sky130_fd_sc_hd__nand4b_1
*I *358:A I *D sky130_fd_sc_hd__xor2_1
*I *359:A I *D sky130_fd_sc_hd__nand2_1
*I *494:Q O *D sky130_fd_sc_hd__dfrtp_1
*CAP
1 *335:A_N 0.000170871
2 *358:A 0
3 *359:A 5.21979e-05
4 *494:Q 2.12792e-05
5 *198:14 0.00022378
6 *198:6 0.000363732
7 *357:A *198:14 8.62474e-06
8 *357:C *335:A_N 7.14024e-05
9 *358:B *198:14 0
10 *359:B *335:A_N 4.40807e-05
11 *359:B *198:14 1.83992e-05
12 *360:C *359:A 7.48633e-05
13 *494:D *198:14 0
14 *197:46 *335:A_N 7.34094e-05
*RES
1 *494:Q *198:6 9.82786 
2 *198:6 *198:14 12.8011 
3 *198:14 *359:A 11.0817 
4 *198:14 *358:A 9.24915 
5 *198:6 *335:A_N 14.4094 
*END

*D_NET *199 0.00152621
*CONN
*I *335:C I *D sky130_fd_sc_hd__nand4b_1
*I *361:A I *D sky130_fd_sc_hd__xnor2_1
*I *495:Q O *D sky130_fd_sc_hd__dfrtp_1
*CAP
1 *335:C 0.000373063
2 *361:A 3.64011e-05
3 *495:Q 7.031e-05
4 *199:6 0.000479775
5 *335:C *659:A 2.57847e-05
6 *335:B *335:C 7.01935e-06
7 *335:D *335:C 7.74853e-06
8 *355:C *335:C 3.60268e-05
9 *362:A *335:C 7.40253e-05
10 *362:B *335:C 0.000242802
11 *495:D *199:6 0.000118166
12 *106:10 *335:C 3.46062e-05
13 *106:12 *335:C 2.04806e-05
*RES
1 *495:Q *199:6 11.0817 
2 *199:6 *361:A 10.2378 
3 *199:6 *335:C 28.2017 
*END

*D_NET *200 0.0109805
*CONN
*P clk I
*I *652:A I *D sky130_fd_sc_hd__clkbuf_8
*CAP
1 clk 0.00546651
2 *652:A 0
3 *200:18 0.00546651
4 *200:18 *293:151 2.85842e-05
5 *200:18 *297:89 1.52215e-05
6 *200:18 *297:99 3.64193e-06
*RES
1 clk *200:18 22.8165 
2 *200:18 *652:A 13.7491 
*END

*D_NET *201 0.00383794
*CONN
*I *657:A I *D sky130_fd_sc_hd__buf_4
*I *655:A I *D sky130_fd_sc_hd__buf_4
*I *656:A I *D sky130_fd_sc_hd__buf_12
*I *430:X O *D sky130_fd_sc_hd__buf_2
*CAP
1 *657:A 0
2 *655:A 0.000350386
3 *656:A 0.000214266
4 *430:X 0.000494006
5 *201:14 0.00120872
6 *201:12 0.00113807
7 *655:A *456:B 4.49959e-05
8 *655:A *540:RESET_B 3.58457e-05
9 *655:A *257:10 4.44462e-05
10 *656:A *258:37 0.000302156
11 *201:14 *258:37 5.04829e-06
*RES
1 *430:X *201:12 30.0794 
2 *201:12 *201:14 15.1431 
3 *201:14 *656:A 16.6278 
4 *201:14 *655:A 27.9709 
5 *201:12 *657:A 9.24915 
*END

*D_NET *202 0.000472467
*CONN
*I *517:D I *D sky130_fd_sc_hd__dfxtp_1
*I *322:X O *D sky130_fd_sc_hd__clkdlybuf4s50_1
*CAP
1 *517:D 0.000226853
2 *322:X 0.000226853
3 *517:D *495:RESET_B 0
4 *517:D *300:40 1.87611e-05
5 *517:D *300:46 0
6 *517:D *300:48 0
*RES
1 *322:X *517:D 32.8754 
*END

*D_NET *203 0.00192835
*CONN
*I *384:A0 I *D sky130_fd_sc_hd__mux2_2
*I *631:A I *D sky130_fd_sc_hd__clkdlybuf4s50_1
*I *507:Q O *D sky130_fd_sc_hd__dfrtp_1
*CAP
1 *384:A0 0.000370261
2 *631:A 0
3 *507:Q 0.000240679
4 *203:10 0.000610941
5 *384:A0 *376:A0 0.000118116
6 *384:A0 *512:CLK 0.000151258
7 *384:A0 *294:29 4.70016e-05
8 *203:10 *512:CLK 0.000137009
9 *203:10 *221:23 3.4745e-05
10 *203:10 *301:105 0.000162551
11 *203:10 *301:107 2.57847e-05
12 *505:D *203:10 3.00073e-05
*RES
1 *507:Q *203:10 20.5964 
2 *203:10 *631:A 13.7491 
3 *203:10 *384:A0 23.675 
*END

*D_NET *204 0.00191822
*CONN
*I *632:A I *D sky130_fd_sc_hd__clkdlybuf4s50_1
*I *385:A0 I *D sky130_fd_sc_hd__mux2_2
*I *508:Q O *D sky130_fd_sc_hd__dfrtp_1
*CAP
1 *632:A 0.000265464
2 *385:A0 0.00054258
3 *508:Q 4.4594e-05
4 *204:6 0.000852638
5 *385:A0 *385:A1 1.03594e-05
6 *385:A0 *635:A 0.000102527
7 *632:A *377:A0 7.47918e-05
8 *632:A *377:A1 0
9 *632:A *508:RESET_B 2.52705e-05
10 *632:A *510:RESET_B 0
11 *503:D *385:A0 0
12 *503:D *632:A 0
*RES
1 *508:Q *204:6 9.97254 
2 *204:6 *385:A0 26.9052 
3 *204:6 *632:A 25.8947 
*END

*D_NET *205 0.00188368
*CONN
*I *386:A0 I *D sky130_fd_sc_hd__mux2_2
*I *633:A I *D sky130_fd_sc_hd__clkdlybuf4s50_1
*I *509:Q O *D sky130_fd_sc_hd__dfrtp_1
*CAP
1 *386:A0 8.29169e-05
2 *633:A 0.000427213
3 *509:Q 0
4 *205:4 0.00051013
5 *386:A0 *386:A1 0.00013607
6 *633:A rx_data[2] 5.15155e-05
7 *633:A *386:A1 5.04829e-06
8 *633:A *500:CLK 0.000330596
9 *633:A *509:RESET_B 2.23519e-05
10 *633:A *297:305 0
11 *509:D *386:A0 4.89392e-05
12 *509:D *633:A 0.000268896
*RES
1 *509:Q *205:4 9.24915 
2 *205:4 *633:A 32.0626 
3 *205:4 *386:A0 12.7456 
*END

*D_NET *206 0.00152629
*CONN
*I *634:A I *D sky130_fd_sc_hd__clkdlybuf4s50_1
*I *387:A0 I *D sky130_fd_sc_hd__mux2_2
*I *510:Q O *D sky130_fd_sc_hd__dfrtp_1
*CAP
1 *634:A 0.000245793
2 *387:A0 0.000278771
3 *510:Q 0.000117922
4 *206:8 0.000642486
5 *387:A0 *387:S 0.000212538
6 *387:A0 *635:A 0
7 *634:A rx_data[4] 0
8 *634:A *635:A 0
9 *206:8 *510:RESET_B 2.8779e-05
*RES
1 *510:Q *206:8 15.5817 
2 *206:8 *387:A0 21.7112 
3 *206:8 *634:A 19.3507 
*END

*D_NET *207 0.00206466
*CONN
*I *635:A I *D sky130_fd_sc_hd__clkdlybuf4s50_1
*I *388:A0 I *D sky130_fd_sc_hd__mux2_2
*I *511:Q O *D sky130_fd_sc_hd__dfrtp_1
*CAP
1 *635:A 0.000337808
2 *388:A0 1.6943e-05
3 *511:Q 0.000184365
4 *207:10 0.000539116
5 *388:A0 *388:S 0.000113713
6 *388:A0 *301:14 4.81452e-05
7 *388:A0 *301:18 6.5568e-05
8 *635:A *385:A1 8.90328e-05
9 *635:A *508:CLK 0.000292682
10 *635:A *510:RESET_B 0.000195222
11 *207:10 *385:A1 5.13292e-05
12 *207:10 *511:RESET_B 1.69474e-05
13 *385:A0 *635:A 0.000102527
14 *387:A0 *635:A 0
15 *503:D *635:A 0
16 *508:D *635:A 1.12605e-05
17 *634:A *635:A 0
*RES
1 *511:Q *207:10 17.2744 
2 *207:10 *388:A0 15.0271 
3 *207:10 *635:A 25.5794 
*END

*D_NET *208 0.00154524
*CONN
*I *636:A I *D sky130_fd_sc_hd__clkdlybuf4s50_1
*I *389:A0 I *D sky130_fd_sc_hd__mux2_2
*I *512:Q O *D sky130_fd_sc_hd__dfrtp_1
*CAP
1 *636:A 0.000177488
2 *389:A0 0.000218414
3 *512:Q 0.000222891
4 *208:8 0.000618794
5 *389:A0 *377:A0 0.000118166
6 *389:A0 *514:CLK 8.62625e-06
7 *208:8 *512:RESET_B 7.11885e-05
8 *377:S *389:A0 3.97254e-05
9 *377:S *208:8 6.99486e-05
10 *512:D *389:A0 0
*RES
1 *512:Q *208:8 20.0186 
2 *208:8 *389:A0 19.6294 
3 *208:8 *636:A 17.9655 
*END

*D_NET *209 0.00286685
*CONN
*I *637:A I *D sky130_fd_sc_hd__clkdlybuf4s50_1
*I *390:A0 I *D sky130_fd_sc_hd__mux2_2
*I *513:Q O *D sky130_fd_sc_hd__dfrtp_1
*CAP
1 *637:A 0.000598777
2 *390:A0 0.000390873
3 *513:Q 0.00098965
4 *390:A0 *390:A1 0.000112361
5 *390:A0 *391:S 9.63354e-05
6 *390:A0 *294:10 3.20407e-05
7 *390:A0 *294:25 1.65872e-05
8 *637:A rx_done 0
9 *637:A *380:A 2.53347e-05
10 *637:A *222:27 4.53935e-05
11 *637:A *303:23 0.000144659
12 *637:A *303:58 0.000163154
13 *381:B1 *637:A 0.000109427
14 *118:18 *637:A 1.00554e-05
15 *118:29 *390:A0 7.9328e-05
16 *118:29 *637:A 5.28741e-05
*RES
1 *513:Q *390:A0 35.6292 
2 *513:Q *637:A 42.6534 
*END

*D_NET *210 0.00171732
*CONN
*I *638:A I *D sky130_fd_sc_hd__clkdlybuf4s50_1
*I *391:A0 I *D sky130_fd_sc_hd__mux2_2
*I *514:Q O *D sky130_fd_sc_hd__dfrtp_1
*CAP
1 *638:A 0.000209849
2 *391:A0 9.96855e-05
3 *514:Q 0.000288581
4 *210:8 0.000598115
5 *391:A0 *639:A 0
6 *391:A0 *297:137 7.26606e-05
7 *391:A0 *297:151 7.40253e-05
8 *638:A rx_data[0] 6.49002e-05
9 *638:A *512:RESET_B 0.000283455
10 *638:A *639:A 0
11 *638:A *297:151 2.6046e-05
*RES
1 *514:Q *210:8 17.8002 
2 *210:8 *391:A0 16.4116 
3 *210:8 *638:A 21.3947 
*END

*D_NET *211 0.00356006
*CONN
*I *639:A I *D sky130_fd_sc_hd__clkdlybuf4s50_1
*I *392:B1 I *D sky130_fd_sc_hd__o21ai_0
*I *515:Q O *D sky130_fd_sc_hd__dfrtp_1
*CAP
1 *639:A 0.000846683
2 *392:B1 0
3 *515:Q 0.000296506
4 *211:10 0.00114319
5 *639:A *328:A 0.000117105
6 *639:A *519:CLK 0.000171811
7 *639:A *223:36 9.17028e-05
8 *639:A *223:49 5.05978e-05
9 *639:A *294:10 0
10 *639:A *303:23 0.000203436
11 *639:A *303:58 0.000154788
12 *211:10 *382:C 0.000265041
13 *211:10 *223:36 1.80448e-05
14 *211:10 *229:81 0.000145731
15 *381:B1 *639:A 0
16 *391:A0 *639:A 0
17 *392:A2 *211:10 4.70559e-05
18 *519:D *639:A 0
19 *638:A *639:A 0
20 *91:12 *211:10 8.36586e-06
*RES
1 *515:Q *211:10 19.3563 
2 *211:10 *392:B1 13.7491 
3 *211:10 *639:A 37.8977 
*END

*D_NET *212 0.00276113
*CONN
*I *365:A0 I *D sky130_fd_sc_hd__mux2_2
*I *364:B I *D sky130_fd_sc_hd__nor2_1
*I *480:A I *D sky130_fd_sc_hd__ha_1
*I *367:B2 I *D sky130_fd_sc_hd__a22o_1
*I *496:Q O *D sky130_fd_sc_hd__dfrtp_1
*CAP
1 *365:A0 0
2 *364:B 0
3 *480:A 0
4 *367:B2 0.000176472
5 *496:Q 0.000394512
6 *212:16 0.000316325
7 *212:14 0.000256003
8 *212:10 0.000510661
9 *367:B2 *497:RESET_B 0.000185758
10 *367:B2 *289:53 9.92222e-05
11 *367:B2 *303:64 0.000164815
12 *212:10 *496:RESET_B 2.51446e-05
13 *212:14 *496:RESET_B 6.36773e-05
14 *212:16 *496:RESET_B 0.00015709
15 *212:16 *497:RESET_B 6.50586e-05
16 *364:A *212:14 8.62625e-06
17 *365:A1 *212:10 5.22654e-06
18 *365:A1 *212:14 0.000110767
19 *368:A1 *367:B2 5.66868e-06
20 *115:25 *367:B2 0.000216103
*RES
1 *496:Q *212:10 20.1868 
2 *212:10 *212:14 8.82351 
3 *212:14 *212:16 4.05102 
4 *212:16 *367:B2 25.5386 
5 *212:16 *480:A 9.24915 
6 *212:14 *364:B 9.24915 
7 *212:10 *365:A0 13.7491 
*END

*D_NET *213 0.00162795
*CONN
*I *368:A0 I *D sky130_fd_sc_hd__mux2_2
*I *369:A1 I *D sky130_fd_sc_hd__a22o_1
*I *480:B I *D sky130_fd_sc_hd__ha_1
*I *497:Q O *D sky130_fd_sc_hd__dfrtp_1
*CAP
1 *368:A0 0
2 *369:A1 0.000156815
3 *480:B 0.000132847
4 *497:Q 0
5 *213:21 0.000286544
6 *213:4 0.000262575
7 *480:B *497:RESET_B 0.000112985
8 *213:21 *288:59 0
9 *368:A1 *213:21 0.000169078
10 *369:A2 *369:A1 0.00043527
11 *369:A2 *213:21 4.88955e-05
12 *369:B1 *369:A1 2.29454e-05
*RES
1 *497:Q *213:4 9.24915 
2 *213:4 *480:B 12.7697 
3 *213:4 *213:21 12.8011 
4 *213:21 *369:A1 14.4094 
5 *213:21 *368:A0 9.24915 
*END

*D_NET *214 0.00288437
*CONN
*I *481:A I *D sky130_fd_sc_hd__ha_1
*I *371:A1 I *D sky130_fd_sc_hd__a22o_1
*I *370:A0 I *D sky130_fd_sc_hd__mux2_2
*I *498:Q O *D sky130_fd_sc_hd__dfrtp_1
*CAP
1 *481:A 7.27635e-05
2 *371:A1 4.68313e-05
3 *370:A0 0.00029271
4 *498:Q 0.000477022
5 *214:8 0.000749544
6 *214:6 0.000959788
7 *370:A0 *371:B2 1.43832e-05
8 *481:A *498:RESET_B 0.000122978
9 *214:6 *298:167 4.59816e-06
10 *214:8 *298:167 3.54227e-05
11 *371:B1 *370:A0 1.32043e-05
12 *498:D *371:A1 1.0759e-05
13 *498:D *214:8 8.43687e-05
*RES
1 *498:Q *214:6 16.0732 
2 *214:6 *214:8 6.26943 
3 *214:8 *370:A0 23.2989 
4 *214:8 *371:A1 10.6477 
5 *214:6 *481:A 20.4964 
*END

*D_NET *215 0.00307043
*CONN
*I *384:A1 I *D sky130_fd_sc_hd__mux2_2
*I *373:A1 I *D sky130_fd_sc_hd__mux2_2
*I *499:Q O *D sky130_fd_sc_hd__dfrtp_1
*CAP
1 *384:A1 0.000338054
2 *373:A1 5.22182e-05
3 *499:Q 0.000300806
4 *215:10 0.000691079
5 *384:A1 *376:A0 0.000258216
6 *384:A1 *385:S 0.000258216
7 *384:A1 *293:151 0
8 *215:10 *499:RESET_B 3.26531e-05
9 *215:10 *500:RESET_B 0
10 *215:10 *293:151 0
11 *373:S *373:A1 5.04829e-06
12 *503:D *384:A1 0.000257653
13 *504:D *215:10 0
14 *507:D *384:A1 0.000165657
15 *118:60 *384:A1 0.000655196
16 *118:60 *215:10 5.56367e-05
*RES
1 *499:Q *215:10 19.6294 
2 *215:10 *373:A1 14.4725 
3 *215:10 *384:A1 29.7348 
*END

*D_NET *216 0.00441621
*CONN
*I *373:A0 I *D sky130_fd_sc_hd__mux2_2
*I *385:A1 I *D sky130_fd_sc_hd__mux2_2
*I *374:A1 I *D sky130_fd_sc_hd__mux2_2
*I *500:Q O *D sky130_fd_sc_hd__dfrtp_1
*CAP
1 *373:A0 8.20981e-05
2 *385:A1 0.000554635
3 *374:A1 0.000591943
4 *500:Q 0
5 *216:23 0.00101735
6 *216:4 0.000972555
7 *374:A1 *374:A0 6.47133e-05
8 *374:A1 *386:A1 1.79672e-05
9 *374:A1 *500:RESET_B 0.000160561
10 *385:A1 *376:A0 6.27782e-05
11 *385:A1 *386:S 0
12 *385:A1 *499:CLK 0
13 *385:A1 *500:RESET_B 8.62625e-06
14 *385:A1 *293:151 0.00015744
15 *216:23 *500:RESET_B 0.000506702
16 *385:A0 *385:A1 1.03594e-05
17 *499:D *373:A0 3.072e-06
18 *499:D *216:23 1.75637e-06
19 *507:D *385:A1 6.32961e-05
20 *635:A *385:A1 8.90328e-05
21 *207:10 *385:A1 5.13292e-05
*RES
1 *500:Q *216:4 9.24915 
2 *216:4 *374:A1 27.7679 
3 *216:4 *216:23 6.84815 
4 *216:23 *385:A1 33.3354 
5 *216:23 *373:A0 11.0817 
*END

*D_NET *217 0.00258338
*CONN
*I *375:A1 I *D sky130_fd_sc_hd__mux2_2
*I *374:A0 I *D sky130_fd_sc_hd__mux2_2
*I *386:A1 I *D sky130_fd_sc_hd__mux2_2
*I *501:Q O *D sky130_fd_sc_hd__dfrtp_1
*CAP
1 *375:A1 0.000288056
2 *374:A0 0.000113863
3 *386:A1 0.000405353
4 *501:Q 0
5 *217:8 0.000594187
6 *217:6 0.000363028
7 *375:A1 *375:A0 1.1957e-05
8 *375:A1 *502:RESET_B 3.21615e-05
9 *375:A1 *511:CLK 2.5971e-05
10 *375:A1 *297:322 4.64581e-05
11 *375:A1 *301:20 2.18698e-05
12 *386:A1 *495:RESET_B 3.00174e-06
13 *386:A1 *297:305 0.000118894
14 *386:A1 *297:322 7.58595e-05
15 *217:8 *297:322 5.22071e-05
16 *374:A1 *374:A0 6.47133e-05
17 *374:A1 *386:A1 1.79672e-05
18 *386:A0 *386:A1 0.00013607
19 *633:A *386:A1 5.04829e-06
20 *118:70 *375:A1 0.000206718
*RES
1 *501:Q *217:6 13.7491 
2 *217:6 *217:8 2.24725 
3 *217:8 *386:A1 25.4457 
4 *217:8 *374:A0 16.691 
5 *217:6 *375:A1 20.184 
*END

*D_NET *218 0.00138316
*CONN
*I *376:A1 I *D sky130_fd_sc_hd__mux2_2
*I *387:A1 I *D sky130_fd_sc_hd__mux2_2
*I *375:A0 I *D sky130_fd_sc_hd__mux2_2
*I *502:Q O *D sky130_fd_sc_hd__dfrtp_1
*CAP
1 *376:A1 0.000143586
2 *387:A1 5.04177e-05
3 *375:A0 0.00015571
4 *502:Q 0.000276988
5 *218:24 0.000315282
6 *375:A0 *502:RESET_B 5.2737e-05
7 *376:A1 *376:A0 5.29535e-05
8 *387:A1 *387:S 0
9 *387:A1 *510:CLK 7.40253e-05
10 *375:A1 *375:A0 1.1957e-05
11 *502:D *218:24 2.84758e-05
12 *118:70 *375:A0 0.000211467
13 *118:70 *376:A1 6.54872e-06
14 *118:70 *218:24 3.01368e-06
*RES
1 *502:Q *375:A0 32.6874 
2 *502:Q *218:24 11.0817 
3 *218:24 *387:A1 19.6659 
4 *218:24 *376:A1 11.6364 
*END

*D_NET *219 0.00548177
*CONN
*I *377:A1 I *D sky130_fd_sc_hd__mux2_2
*I *376:A0 I *D sky130_fd_sc_hd__mux2_2
*I *388:A1 I *D sky130_fd_sc_hd__mux2_2
*I *503:Q O *D sky130_fd_sc_hd__dfrtp_1
*CAP
1 *377:A1 0.000330584
2 *376:A0 0.000457534
3 *388:A1 0.00074105
4 *503:Q 0.000197277
5 *219:21 0.000906931
6 *219:8 0.00105714
7 *376:A0 *385:S 8.35277e-05
8 *376:A0 *294:29 8.80329e-05
9 *376:A0 *294:76 0.000497364
10 *377:A1 *377:A0 0.000231378
11 *377:A1 *508:RESET_B 0
12 *388:A1 *388:S 6.27782e-05
13 *388:A1 *301:12 9.82381e-05
14 *388:A1 *301:14 2.20471e-05
15 *219:8 *503:RESET_B 2.69822e-05
16 *376:A1 *376:A0 5.29535e-05
17 *377:S *377:A1 1.21461e-06
18 *384:A0 *376:A0 0.000118116
19 *384:A1 *376:A0 0.000258216
20 *385:A1 *376:A0 6.27782e-05
21 *632:A *377:A1 0
22 *118:60 *376:A0 0.000142048
23 *118:70 *376:A0 4.55845e-05
*RES
1 *503:Q *219:8 16.691 
2 *219:8 *388:A1 25.5934 
3 *219:8 *219:21 2.6625 
4 *219:21 *376:A0 31.1106 
5 *219:21 *377:A1 21.7028 
*END

*D_NET *220 0.0033931
*CONN
*I *389:A1 I *D sky130_fd_sc_hd__mux2_2
*I *377:A0 I *D sky130_fd_sc_hd__mux2_2
*I *378:A1 I *D sky130_fd_sc_hd__mux2_2
*I *504:Q O *D sky130_fd_sc_hd__dfrtp_1
*CAP
1 *389:A1 0
2 *377:A0 0.000373678
3 *378:A1 0
4 *504:Q 0.000265993
5 *220:21 0.000848935
6 *220:10 0.00074125
7 *220:10 *378:A0 1.79196e-05
8 *220:10 *504:RESET_B 3.30132e-05
9 *220:21 *378:A0 8.82459e-05
10 *220:21 *379:A0 3.2018e-05
11 *220:21 *389:S 8.81078e-05
12 *220:21 *221:23 7.15455e-05
13 *220:21 *294:25 0.000384796
14 *377:A1 *377:A0 0.000231378
15 *389:A0 *377:A0 0.000118166
16 *512:D *377:A0 2.32594e-05
17 *632:A *377:A0 7.47918e-05
18 *118:37 *220:10 0
19 *118:37 *220:21 0
*RES
1 *504:Q *220:10 19.0748 
2 *220:10 *378:A1 13.7491 
3 *220:10 *220:21 19.6201 
4 *220:21 *377:A0 28.9814 
5 *220:21 *389:A1 9.24915 
*END

*D_NET *221 0.00328438
*CONN
*I *390:A1 I *D sky130_fd_sc_hd__mux2_2
*I *379:A1 I *D sky130_fd_sc_hd__mux2_2
*I *378:A0 I *D sky130_fd_sc_hd__mux2_2
*I *505:Q O *D sky130_fd_sc_hd__dfrtp_1
*CAP
1 *390:A1 0.00012667
2 *379:A1 0
3 *378:A0 0.000103562
4 *505:Q 0.000585668
5 *221:23 0.000322185
6 *221:8 0.000884745
7 *390:A1 *294:25 0.000552827
8 *221:8 *505:RESET_B 3.18172e-05
9 *221:23 *294:25 0.000111352
10 *379:S *390:A1 0.000112361
11 *390:A0 *390:A1 0.000112361
12 *505:D *378:A0 6.28168e-05
13 *505:D *221:23 6.5562e-05
14 *203:10 *221:23 3.4745e-05
15 *220:10 *378:A0 1.79196e-05
16 *220:21 *378:A0 8.82459e-05
17 *220:21 *221:23 7.15455e-05
*RES
1 *505:Q *221:8 22.237 
2 *221:8 *378:A0 17.6574 
3 *221:8 *221:23 10.5196 
4 *221:23 *379:A1 9.24915 
5 *221:23 *390:A1 15.5186 
*END

*D_NET *222 0.00597632
*CONN
*I *391:A1 I *D sky130_fd_sc_hd__mux2_2
*I *379:A0 I *D sky130_fd_sc_hd__mux2_2
*I *380:A I *D sky130_fd_sc_hd__nand2_1
*I *506:Q O *D sky130_fd_sc_hd__dfrtp_1
*CAP
1 *391:A1 0
2 *379:A0 0.000404757
3 *380:A 0.000189175
4 *506:Q 0.000597168
5 *222:27 0.000592849
6 *222:8 0.000974436
7 *379:A0 *506:RESET_B 6.08467e-05
8 *379:A0 *513:CLK 0.000196969
9 *379:A0 *514:CLK 2.1667e-05
10 *379:A0 *294:25 0.000355078
11 *379:A0 *303:29 0.000597551
12 *380:A *303:8 5.1155e-05
13 *222:27 *506:RESET_B 0.000704819
14 *222:27 *303:29 0.000547712
15 *381:B1 *380:A 1.00901e-05
16 *506:D *222:8 0.000136972
17 *506:D *222:27 5.04829e-06
18 *514:D *379:A0 0.000201843
19 *637:A *380:A 2.53347e-05
20 *637:A *222:27 4.53935e-05
21 *118:18 *380:A 0.000220775
22 *118:29 *380:A 4.65954e-06
23 *118:37 *379:A0 0
24 *220:21 *379:A0 3.2018e-05
*RES
1 *506:Q *222:8 22.7916 
2 *222:8 *380:A 19.2382 
3 *222:8 *222:27 14.2652 
4 *222:27 *379:A0 33.2733 
5 *222:27 *391:A1 9.24915 
*END

*D_NET *223 0.00586584
*CONN
*I *328:A I *D sky130_fd_sc_hd__inv_1
*I *333:B1 I *D sky130_fd_sc_hd__o21ai_0
*I *382:B I *D sky130_fd_sc_hd__nand3_1
*I *399:B I *D sky130_fd_sc_hd__nand3b_1
*I *327:A1 I *D sky130_fd_sc_hd__o21ai_0
*I *516:Q O *D sky130_fd_sc_hd__dfxtp_1
*CAP
1 *328:A 0.00017234
2 *333:B1 0.000466898
3 *382:B 0.000170766
4 *399:B 0.000111407
5 *327:A1 0.00012854
6 *516:Q 0.000329393
7 *223:49 0.000709507
8 *223:36 0.000461594
9 *223:23 0.000707145
10 *223:6 0.000833112
11 *327:A1 *297:109 6.46135e-05
12 *333:B1 *293:47 4.37419e-05
13 *382:B *382:A 0.000363654
14 *399:B *399:A_N 8.62625e-06
15 *399:B *229:79 3.58185e-05
16 *223:6 *302:20 0.000236357
17 *223:23 *302:20 0.000236305
18 *223:36 *382:A 0.000193344
19 *223:36 *229:79 5.57187e-05
20 *327:A2 *327:A1 6.50586e-05
21 *327:A2 *399:B 2.60984e-05
22 *327:A2 *223:36 3.46105e-05
23 *519:D *328:A 0
24 *519:D *333:B1 1.39721e-05
25 *519:D *223:49 0
26 *639:A *328:A 0.000117105
27 *639:A *223:36 9.17028e-05
28 *639:A *223:49 5.05978e-05
29 *85:14 *327:A1 5.96936e-05
30 *91:12 *223:36 6.00813e-05
31 *211:10 *223:36 1.80448e-05
*RES
1 *516:Q *223:6 14.964 
2 *223:6 *327:A1 22.1896 
3 *223:6 *223:23 10.7694 
4 *223:23 *399:B 16.7292 
5 *223:23 *223:36 8.06078 
6 *223:36 *382:B 18.9335 
7 *223:36 *223:49 2.24725 
8 *223:49 *333:B1 30.1566 
9 *223:49 *328:A 19.007 
*END

*D_NET *224 0.00314138
*CONN
*I *516:D I *D sky130_fd_sc_hd__dfxtp_1
*I *517:Q O *D sky130_fd_sc_hd__dfxtp_1
*CAP
1 *516:D 0.00119569
2 *517:Q 0.00119569
3 *516:D *300:25 0.000151149
4 *516:D *300:34 0.000291768
5 *516:D *300:38 7.03781e-05
6 *516:D *300:40 0.000236709
*RES
1 *517:Q *516:D 40.3027 
*END

*D_NET *225 0.000780216
*CONN
*I *648:A I *D sky130_fd_sc_hd__buf_4
*I *395:A I *D sky130_fd_sc_hd__nor2b_4
*I *518:Q O *D sky130_fd_sc_hd__dfrtp_1
*CAP
1 *648:A 0
2 *395:A 0.000188142
3 *518:Q 5.49743e-05
4 *225:8 0.000243116
5 *395:A *398:D 1.09738e-05
6 *395:A *288:6 5.08751e-05
7 *395:A *288:12 0.000113968
8 *395:A *298:127 0
9 *225:8 *518:RESET_B 0.000118166
10 *324:B *395:A 0
*RES
1 *518:Q *225:8 11.1059 
2 *225:8 *395:A 23.1595 
3 *225:8 *648:A 9.24915 
*END

*D_NET *226 0.00472777
*CONN
*I *366:A I *D sky130_fd_sc_hd__nor2_1
*I *333:A1 I *D sky130_fd_sc_hd__o21ai_0
*I *325:A I *D sky130_fd_sc_hd__inv_1
*I *398:B I *D sky130_fd_sc_hd__nor4_4
*I *519:Q O *D sky130_fd_sc_hd__dfstp_2
*CAP
1 *366:A 0.000169551
2 *333:A1 0
3 *325:A 0.000238476
4 *398:B 0.00023896
5 *519:Q 0.000337563
6 *226:39 0.000626488
7 *226:8 0.000794983
8 *325:A *382:A 0.000258216
9 *325:A *229:81 2.33637e-05
10 *366:A *520:CLK 1.59756e-05
11 *366:A *288:16 0.000110306
12 *366:A *288:31 6.36477e-05
13 *398:B *398:A 5.23577e-05
14 *398:B *518:CLK 2.86829e-05
15 *398:B *302:60 7.73683e-05
16 *398:B *302:64 0.000177254
17 *226:8 *518:CLK 0.000363414
18 *226:8 *293:47 0
19 *226:39 *302:64 6.08467e-05
20 *331:A1 *226:8 7.50872e-05
21 *331:A2 *398:B 0.000125424
22 *331:A2 *226:8 0.000224808
23 *331:A2 *226:39 8.8175e-05
24 *333:A2 *226:39 1.05809e-05
25 *334:A1 *226:39 5.36868e-05
26 *334:A2 *325:A 4.39977e-05
27 *334:B1 *226:39 0.000220559
28 *518:D *226:39 6.46815e-05
29 *519:D *226:39 0.000114271
30 *520:D *366:A 2.29454e-05
31 *94:12 *325:A 4.6097e-05
*RES
1 *519:Q *226:8 22.2252 
2 *226:8 *398:B 20.235 
3 *226:8 *226:39 16.1949 
4 *226:39 *325:A 24.974 
5 *226:39 *333:A1 9.24915 
6 *519:Q *366:A 22.5734 
*END

*D_NET *227 0.00083984
*CONN
*I *647:A I *D sky130_fd_sc_hd__buf_4
*I *395:B_N I *D sky130_fd_sc_hd__nor2b_4
*I *520:Q O *D sky130_fd_sc_hd__dfrtp_1
*CAP
1 *647:A 0
2 *395:B_N 6.67041e-06
3 *520:Q 0.000315682
4 *227:12 0.000322352
5 *395:B_N *288:6 6.50586e-05
6 *227:12 *323:A 4.15143e-05
7 *227:12 *498:RESET_B 1.92926e-05
8 *227:12 *520:RESET_B 0
9 *227:12 *298:127 0
10 *124:10 *395:B_N 6.92705e-05
*RES
1 *520:Q *227:12 25.0964 
2 *227:12 *395:B_N 9.97254 
3 *227:12 *647:A 9.24915 
*END

*D_NET *228 0.0119958
*CONN
*I *407:A2 I *D sky130_fd_sc_hd__a211o_1
*I *398:C I *D sky130_fd_sc_hd__nor4_4
*I *403:A2 I *D sky130_fd_sc_hd__o31a_1
*I *413:A2 I *D sky130_fd_sc_hd__o32ai_1
*I *396:A1 I *D sky130_fd_sc_hd__a211oi_1
*I *329:C_N I *D sky130_fd_sc_hd__nor3b_1
*I *399:C I *D sky130_fd_sc_hd__nand3b_1
*I *326:B1 I *D sky130_fd_sc_hd__o21ai_0
*I *521:Q O *D sky130_fd_sc_hd__dfrtp_1
*CAP
1 *407:A2 6.66451e-06
2 *398:C 0.000741992
3 *403:A2 6.60591e-05
4 *413:A2 0.000152194
5 *396:A1 0
6 *329:C_N 0.000229852
7 *399:C 1.83519e-05
8 *326:B1 4.6704e-05
9 *521:Q 0.000168231
10 *228:93 0.00105098
11 *228:70 0.00076325
12 *228:64 0.000533365
13 *228:51 0.000349653
14 *228:22 0.000268751
15 *228:10 0.000778852
16 *228:6 0.000704613
17 *326:B1 *399:A_N 3.27324e-05
18 *329:C_N *233:34 0.00010182
19 *329:C_N *233:60 0
20 *329:C_N *302:16 0
21 *398:C *522:RESET_B 0.000203999
22 *398:C *526:CLK 0.000173919
23 *398:C *298:101 2.62563e-05
24 *398:C *302:64 0.000118528
25 *403:A2 *403:A1 1.03403e-05
26 *413:A2 *413:A1 0.000157226
27 *413:A2 *298:101 3.14347e-05
28 *228:6 *229:68 0.000310724
29 *228:10 *229:68 0
30 *228:10 *229:79 0
31 *228:10 *233:60 0
32 *228:51 *229:68 0.000601685
33 *228:64 *416:C 3.20407e-05
34 *228:64 *229:68 9.90819e-05
35 *228:70 *285:14 0.000760313
36 *228:93 *413:A1 8.85305e-05
37 *228:93 *229:35 0.000182915
38 *228:93 *233:16 0.000111708
39 *228:93 *298:101 0.000151115
40 *327:A2 *326:B1 6.64392e-05
41 *334:A2 *329:C_N 0
42 *396:B1 *228:64 9.20976e-05
43 *401:A1 *228:22 0.000171288
44 *401:A2 *228:22 2.57365e-05
45 *403:A3 *403:A2 1.41976e-05
46 *408:B *228:51 9.23629e-05
47 *408:B *228:64 0.000159586
48 *413:A3 *413:A2 5.54585e-05
49 *418:A1 *407:A2 6.34651e-06
50 *418:A1 *228:64 4.47123e-05
51 *32:12 *228:10 0
52 *85:6 *326:B1 0.000218567
53 *85:6 *228:22 0.000144598
54 *85:47 *329:C_N 0
55 *96:8 *228:10 0
56 *124:10 *398:C 0.000239228
57 *124:16 *398:C 6.47324e-05
58 *124:16 *413:A2 4.74531e-05
59 *124:16 *228:93 0.000388702
60 *124:35 *228:70 0.000804458
61 *125:10 *228:64 7.2855e-05
62 *127:12 *398:C 0.000114271
63 *133:16 *407:A2 1.91391e-05
64 *133:16 *228:64 7.97079e-05
*RES
1 *521:Q *228:6 14.4094 
2 *228:6 *228:10 12.1455 
3 *228:10 *228:22 11.1552 
4 *228:22 *326:B1 11.6364 
5 *228:22 *399:C 9.82786 
6 *228:10 *329:C_N 19.7337 
7 *228:6 *228:51 8.12615 
8 *228:51 *396:A1 9.24915 
9 *228:51 *228:64 11.5993 
10 *228:64 *228:70 8.24077 
11 *228:70 *413:A2 18.3536 
12 *228:70 *228:93 17.8869 
13 *228:93 *403:A2 15.0271 
14 *228:93 *398:C 30.9745 
15 *228:64 *407:A2 14.1278 
*END

*D_NET *229 0.013491
*CONN
*I *407:C1 I *D sky130_fd_sc_hd__a211o_1
*I *396:C1 I *D sky130_fd_sc_hd__a211oi_1
*I *320:B1 I *D sky130_fd_sc_hd__o21ai_0
*I *398:A I *D sky130_fd_sc_hd__nor4_4
*I *392:A1 I *D sky130_fd_sc_hd__o21ai_0
*I *382:C I *D sky130_fd_sc_hd__nand3_1
*I *332:B I *D sky130_fd_sc_hd__nand2_1
*I *413:A1 I *D sky130_fd_sc_hd__o32ai_1
*I *403:A1 I *D sky130_fd_sc_hd__o31a_1
*I *522:Q O *D sky130_fd_sc_hd__dfrtp_1
*CAP
1 *407:C1 5.18711e-05
2 *396:C1 0
3 *320:B1 0.000175203
4 *398:A 9.13993e-05
5 *392:A1 1.90278e-05
6 *382:C 0.000212628
7 *332:B 0
8 *413:A1 0.000186998
9 *403:A1 0.000141546
10 *522:Q 0.000522067
11 *229:109 0.000647838
12 *229:81 0.000364183
13 *229:79 0.000821377
14 *229:68 0.000871146
15 *229:58 0.00113923
16 *229:50 0.00126767
17 *229:35 0.000962591
18 *229:18 0.000799104
19 *320:B1 *317:A 4.7903e-06
20 *382:C *297:109 3.06114e-05
21 *382:C *297:120 5.24812e-05
22 *398:A *302:60 3.54726e-05
23 *229:50 *410:B 8.73084e-06
24 *229:50 *411:A 3.82228e-05
25 *229:58 *285:14 7.86825e-06
26 *229:79 *399:A_N 0
27 *229:81 *382:A 0.000112361
28 *229:109 *382:A 0.000206696
29 *318:C *229:58 0
30 *325:A *229:81 2.33637e-05
31 *329:A *229:109 0.000253399
32 *331:A2 *398:A 3.20407e-05
33 *334:A2 *229:79 0.000323544
34 *338:A *320:B1 0.000149654
35 *338:A *229:109 0.000159016
36 *383:A *382:C 0.000110458
37 *383:B *382:C 6.27782e-05
38 *392:A2 *229:81 6.36477e-05
39 *393:A2 *382:C 4.73299e-05
40 *393:B1 *382:C 1.78942e-05
41 *393:B1 *392:A1 1.05106e-05
42 *393:B1 *229:81 2.16465e-05
43 *396:A2 *229:58 0
44 *396:B1 *229:68 6.64392e-05
45 *398:B *398:A 5.23577e-05
46 *399:B *229:79 3.58185e-05
47 *403:A2 *403:A1 1.03403e-05
48 *403:B1 *229:18 7.48055e-05
49 *403:B1 *229:35 6.56617e-05
50 *407:A1 *229:58 3.70505e-05
51 *407:B1 *407:C1 6.40236e-06
52 *407:B1 *229:58 5.20546e-06
53 *409:A1 *229:68 0.000159032
54 *410:A *229:50 1.03403e-05
55 *411:B *229:50 4.89898e-06
56 *412:B *229:50 9.80242e-07
57 *413:A2 *413:A1 0.000157226
58 *413:B2 *229:50 0.000107496
59 *417:B *229:50 6.50586e-05
60 *417:C *229:50 1.00981e-05
61 *515:D *382:C 1.65351e-05
62 *32:12 *229:58 0
63 *84:22 *320:B1 0.000178241
64 *85:14 *382:C 1.02917e-05
65 *85:53 *229:109 7.00638e-05
66 *91:12 *229:81 8.46327e-05
67 *94:12 *229:109 5.04423e-06
68 *96:8 *229:79 0.000143032
69 *124:10 *229:18 9.49811e-05
70 *124:16 *403:A1 2.41817e-05
71 *124:16 *229:18 0.000102122
72 *124:16 *229:35 1.62321e-05
73 *125:10 *229:58 8.05858e-05
74 *211:10 *382:C 0.000265041
75 *211:10 *229:81 0.000145731
76 *223:36 *229:79 5.57187e-05
77 *228:6 *229:68 0.000310724
78 *228:10 *229:68 0
79 *228:10 *229:79 0
80 *228:51 *229:68 0.000601685
81 *228:64 *229:68 9.90819e-05
82 *228:93 *413:A1 8.85305e-05
83 *228:93 *229:35 0.000182915
*RES
1 *522:Q *229:18 26.083 
2 *229:18 *403:A1 16.5726 
3 *229:18 *229:35 4.53113 
4 *229:35 *413:A1 19.3507 
5 *229:35 *229:50 13.5424 
6 *229:50 *229:58 18.899 
7 *229:58 *229:68 20.9712 
8 *229:68 *332:B 13.7491 
9 *229:68 *229:79 14.2218 
10 *229:79 *229:81 4.60562 
11 *229:81 *382:C 25.962 
12 *229:81 *392:A1 9.82786 
13 *229:79 *229:109 10.6098 
14 *229:109 *398:A 20.9116 
15 *229:109 *320:B1 22.9158 
16 *229:58 *396:C1 9.24915 
17 *229:50 *407:C1 10.5874 
*END

*D_NET *230 0.00319534
*CONN
*I *397:A I *D sky130_fd_sc_hd__nor2_1
*I *416:B I *D sky130_fd_sc_hd__nand3_1
*I *405:A0 I *D sky130_fd_sc_hd__mux2_1
*I *484:A I *D sky130_fd_sc_hd__ha_4
*I *523:Q O *D sky130_fd_sc_hd__dfrtp_1
*CAP
1 *397:A 0.000311876
2 *416:B 0.000107481
3 *405:A0 0
4 *484:A 0.000265309
5 *523:Q 0.00014421
6 *230:30 0.000107481
7 *230:28 0.000432975
8 *397:A *232:35 6.22868e-05
9 *416:B *416:C 0.000258195
10 *230:28 *416:C 6.56744e-05
11 *396:B1 *397:A 2.78888e-05
12 *396:B1 *230:28 4.9e-05
13 *397:B *397:A 6.36477e-05
14 *405:A1 *397:A 0.000237469
15 *409:A1 *484:A 7.92838e-05
16 *409:S *230:28 5.35029e-05
17 *417:C *416:B 2.58616e-05
18 *418:D1 *397:A 3.20069e-06
19 *419:A1_N *397:A 0
20 *419:A2_N *397:A 6.93349e-06
21 *523:D *484:A 4.22198e-05
22 *32:12 *484:A 0.000211319
23 *32:12 *230:28 6.27718e-05
24 *130:10 *397:A 0.000188182
25 *133:16 *397:A 0.000249034
26 *133:16 *416:B 0.000107496
27 *133:16 *230:28 3.20407e-05
*RES
1 *523:Q *484:A 32.548 
2 *484:A *230:28 17.9655 
3 *230:28 *230:30 4.5 
4 *230:30 *405:A0 9.24915 
5 *230:30 *416:B 13.3002 
6 *230:28 *397:A 24.417 
*END

*D_NET *231 0.00353338
*CONN
*I *416:C I *D sky130_fd_sc_hd__nand3_1
*I *484:B I *D sky130_fd_sc_hd__ha_4
*I *406:A I *D sky130_fd_sc_hd__inv_1
*I *524:Q O *D sky130_fd_sc_hd__dfrtp_1
*CAP
1 *416:C 0.000299605
2 *484:B 0
3 *406:A 0.000606868
4 *524:Q 0.000137091
5 *231:21 0.000536984
6 *231:6 0.000981338
7 *406:A *299:16 0.000344744
8 *231:6 *299:16 9.16621e-05
9 *231:21 *293:187 1.32315e-05
10 *396:B1 *416:C 1.00901e-05
11 *409:A0 *406:A 2.19465e-05
12 *409:A1 *231:21 0
13 *409:S *231:21 0
14 *416:B *416:C 0.000258195
15 *523:D *416:C 2.89766e-05
16 *523:D *231:21 3.11587e-05
17 *133:16 *416:C 7.37722e-05
18 *228:64 *416:C 3.20407e-05
19 *230:28 *416:C 6.56744e-05
*RES
1 *524:Q *231:6 11.6364 
2 *231:6 *406:A 20.5643 
3 *231:6 *231:21 10.0693 
4 *231:21 *484:B 13.7491 
5 *231:21 *416:C 22.1237 
*END

*D_NET *232 0.00718344
*CONN
*I *416:A I *D sky130_fd_sc_hd__nand3_1
*I *411:A I *D sky130_fd_sc_hd__nor2_1
*I *414:B1 I *D sky130_fd_sc_hd__o21ai_0
*I *318:A I *D sky130_fd_sc_hd__nand3_2
*I *394:C I *D sky130_fd_sc_hd__nand3b_1
*I *400:A I *D sky130_fd_sc_hd__nand2_1
*I *412:A I *D sky130_fd_sc_hd__and2_1
*I *525:Q O *D sky130_fd_sc_hd__dfrtp_1
*CAP
1 *416:A 2.99136e-05
2 *411:A 0.000201059
3 *414:B1 0.000112486
4 *318:A 0
5 *394:C 6.79145e-05
6 *400:A 0
7 *412:A 0
8 *525:Q 0.000449659
9 *232:60 0.000536899
10 *232:42 7.89851e-05
11 *232:35 0.000434219
12 *232:25 0.000724689
13 *232:14 0.000234029
14 *232:10 0.000635414
15 *394:C *233:60 0.000217587
16 *411:A *402:A 0.000107496
17 *411:A *298:101 0.000116705
18 *414:B1 *298:101 0.000257376
19 *232:10 *285:26 0.000185159
20 *232:14 *285:26 1.06049e-05
21 *232:25 *417:A 0.00011158
22 *232:60 *402:A 0.000154145
23 *232:60 *233:16 9.80242e-07
24 *318:B *232:35 6.50727e-05
25 *397:A *232:35 6.22868e-05
26 *397:B *232:35 0.000165521
27 *400:B *232:35 2.11517e-05
28 *400:B *232:42 6.08467e-05
29 *405:A1 *232:35 0.000461621
30 *410:A *232:10 8.859e-05
31 *411:B *411:A 7.96388e-06
32 *413:B1 *411:A 7.92757e-06
33 *413:B2 *416:A 5.04829e-06
34 *415:B *414:B1 0.000186445
35 *417:C *416:A 7.01935e-06
36 *417:C *232:14 4.1905e-05
37 *418:A2 *232:14 0.000111818
38 *418:A2 *232:25 0.000130126
39 *418:A2 *232:60 4.0752e-05
40 *418:B1 *232:35 2.20702e-05
41 *419:B1 *414:B1 0
42 *419:B1 *232:35 0.000222149
43 *525:D *416:A 1.03403e-05
44 *525:D *232:10 0.000118136
45 *32:12 *394:C 1.07248e-05
46 *32:23 *394:C 0.000210445
47 *85:6 *232:35 0.000107496
48 *85:47 *232:35 0.000113968
49 *124:16 *411:A 0.000114172
50 *130:10 *232:35 8.47213e-05
51 *229:50 *411:A 3.82228e-05
*RES
1 *525:Q *232:10 25.73 
2 *232:10 *232:14 4.37236 
3 *232:14 *412:A 13.7491 
4 *232:14 *232:25 7.1625 
5 *232:25 *232:35 15.3842 
6 *232:35 *400:A 9.24915 
7 *232:35 *232:42 0.723396 
8 *232:42 *394:C 22.1574 
9 *232:42 *318:A 9.24915 
10 *232:25 *232:60 3.49641 
11 *232:60 *414:B1 22.9879 
12 *232:60 *411:A 23.7988 
13 *232:10 *416:A 14.4725 
*END

*D_NET *233 0.0114195
*CONN
*I *417:A I *D sky130_fd_sc_hd__nor3_1
*I *317:A I *D sky130_fd_sc_hd__inv_1
*I *394:A_N I *D sky130_fd_sc_hd__nand3b_1
*I *399:A_N I *D sky130_fd_sc_hd__nand3b_1
*I *326:A1 I *D sky130_fd_sc_hd__o21ai_0
*I *332:A I *D sky130_fd_sc_hd__nand2_1
*I *329:B I *D sky130_fd_sc_hd__nor3b_1
*I *382:A I *D sky130_fd_sc_hd__nand3_1
*I *526:Q O *D sky130_fd_sc_hd__dfrtp_1
*CAP
1 *417:A 0.000150881
2 *317:A 0.000162586
3 *394:A_N 0
4 *399:A_N 0.000142974
5 *326:A1 0.000220448
6 *332:A 0
7 *329:B 0
8 *382:A 0.000308484
9 *526:Q 0.000905643
10 *233:71 0.000497995
11 *233:62 0.000273833
12 *233:60 0.000383975
13 *233:34 0.000676792
14 *233:26 0.00110312
15 *233:22 0.00104755
16 *233:16 0.00145139
17 *326:A1 *297:109 0
18 *233:16 *402:A 0.00017686
19 *233:26 *302:16 7.48797e-05
20 *233:34 *302:16 6.7098e-05
21 *233:34 *302:20 8.94959e-05
22 *320:B1 *317:A 4.7903e-06
23 *324:A *317:A 3.19445e-05
24 *325:A *382:A 0.000258216
25 *326:B1 *399:A_N 3.27324e-05
26 *327:A2 *399:A_N 2.81678e-06
27 *329:C_N *233:34 0.00010182
28 *329:C_N *233:60 0
29 *334:A2 *382:A 7.58329e-05
30 *334:A2 *233:34 6.72905e-05
31 *382:B *382:A 0.000363654
32 *394:C *233:60 0.000217587
33 *399:B *399:A_N 8.62625e-06
34 *403:B1 *233:16 0.000142844
35 *415:B *417:A 0
36 *417:B *417:A 6.83813e-05
37 *418:A1 *417:A 0
38 *418:A2 *417:A 2.04806e-05
39 *418:A2 *233:16 0.000141245
40 *418:B1 *233:16 6.18302e-05
41 *418:B1 *233:22 0.000207266
42 *418:C1 *233:22 1.67988e-05
43 *419:A1_N *317:A 1.28326e-05
44 *419:A2_N *417:A 1.49516e-05
45 *419:B1 *417:A 7.65861e-05
46 *521:D *326:A1 0
47 *84:22 *317:A 3.19445e-05
48 *85:14 *326:A1 1.44611e-05
49 *85:14 *399:A_N 0
50 *85:47 *317:A 0
51 *94:12 *382:A 1.00766e-05
52 *127:12 *317:A 0.000219263
53 *130:10 *233:22 0.000264586
54 *133:16 *317:A 8.62625e-06
55 *133:16 *233:22 7.14746e-05
56 *190:20 *326:A1 8.28915e-05
57 *190:20 *233:62 0.00022355
58 *190:20 *233:71 9.34412e-05
59 *223:36 *382:A 0.000193344
60 *228:10 *233:60 0
61 *228:93 *233:16 0.000111708
62 *229:79 *399:A_N 0
63 *229:81 *382:A 0.000112361
64 *229:109 *382:A 0.000206696
65 *232:25 *417:A 0.00011158
66 *232:60 *233:16 9.80242e-07
*RES
1 *526:Q *233:16 40.403 
2 *233:16 *233:22 11.6316 
3 *233:22 *233:26 11.8786 
4 *233:26 *233:34 17.3745 
5 *233:34 *382:A 29.8442 
6 *233:34 *329:B 9.24915 
7 *233:26 *233:60 14.9845 
8 *233:60 *233:62 5.16022 
9 *233:62 *332:A 9.24915 
10 *233:62 *233:71 4.07513 
11 *233:71 *326:A1 24.8233 
12 *233:71 *399:A_N 22.128 
13 *233:60 *394:A_N 9.24915 
14 *233:22 *317:A 18.8677 
15 *233:16 *417:A 22.5727 
*END

*D_NET *234 6.04409e-05
*CONN
*I *640:A I *D sky130_fd_sc_hd__clkdlybuf4s50_1
*I *546:Q O *D sky130_fd_sc_hd__dfstp_2
*CAP
1 *640:A 3.02205e-05
2 *546:Q 3.02205e-05
*RES
1 *546:Q *640:A 19.2217 
*END

*D_NET *235 0.00457552
*CONN
*I *315:A_N I *D sky130_fd_sc_hd__nand2b_1
*I *641:A I *D sky130_fd_sc_hd__clkdlybuf4s50_1
*I *476:B I *D sky130_fd_sc_hd__nand3_1
*I *310:A I *D sky130_fd_sc_hd__nor2b_1
*I *475:A0 I *D sky130_fd_sc_hd__mux2i_1
*I *547:Q O *D sky130_fd_sc_hd__dfrtp_1
*CAP
1 *315:A_N 0
2 *641:A 0.000190605
3 *476:B 0
4 *310:A 8.77919e-05
5 *475:A0 0.000106228
6 *547:Q 0.000755933
7 *235:45 0.000467721
8 *235:34 0.000383356
9 *235:21 0.000222693
10 *235:8 0.000890821
11 *475:A0 *475:S 0
12 *641:A tx_busy 7.48797e-05
13 *641:A *287:16 0.0002817
14 *235:8 *547:RESET_B 2.67798e-05
15 *235:8 *547:CLK 6.15488e-05
16 *235:34 *315:B 0
17 *235:45 *315:B 0.000390219
18 *235:45 *476:A 1.64789e-05
19 *311:B1 *235:34 0.000101118
20 *311:B1 *235:45 7.92757e-06
21 *475:A1 *475:A0 0.000192267
22 *475:A1 *235:21 7.45404e-05
23 *475:A1 *235:34 2.4562e-05
24 *476:C *235:34 8.62625e-06
25 *476:C *235:45 6.50586e-05
26 *477:A2 *475:A0 1.79672e-05
27 *477:A2 *235:21 2.39519e-05
28 *477:A2 *235:34 4.90829e-05
29 *83:10 *235:45 5.36586e-05
*RES
1 *547:Q *235:8 25.01 
2 *235:8 *475:A0 17.135 
3 *235:8 *235:21 1.41674 
4 *235:21 *310:A 15.5817 
5 *235:21 *235:34 7.57775 
6 *235:34 *476:B 9.24915 
7 *235:34 *235:45 9.09068 
8 *235:45 *641:A 15.5186 
9 *235:45 *315:A_N 9.24915 
*END

*D_NET *236 0.0003701
*CONN
*I *431:A0 I *D sky130_fd_sc_hd__mux2i_1
*I *321:X O *D sky130_fd_sc_hd__clkdlybuf4s50_1
*CAP
1 *431:A0 0.000169692
2 *321:X 0.000169692
3 *431:A0 *453:B 0
4 *431:A0 *248:6 3.07159e-05
*RES
1 *321:X *431:A0 31.5781 
*END

*D_NET *237 0.000991561
*CONN
*I *434:A0 I *D sky130_fd_sc_hd__mux2i_1
*I *319:X O *D sky130_fd_sc_hd__clkdlybuf4s50_1
*CAP
1 *434:A0 0.00042457
2 *319:X 0.00042457
3 *434:A0 *437:A0 0
4 *434:A0 *453:B 0
5 *434:A0 *531:RESET_B 0
6 *434:A0 *287:51 0.000142421
7 *434:A0 *292:63 0
*RES
1 *319:X *434:A0 37.5282 
*END

*D_NET *238 0.00122918
*CONN
*I *437:A0 I *D sky130_fd_sc_hd__mux2i_1
*I *306:X O *D sky130_fd_sc_hd__clkdlybuf4s50_1
*CAP
1 *437:A0 0.000460845
2 *306:X 0.000460845
3 *437:A0 *440:S 9.75356e-05
4 *437:A0 *292:55 0.000116746
5 *437:A0 *292:63 2.3939e-05
6 *434:A0 *437:A0 0
7 *439:A2 *437:A0 6.92705e-05
*RES
1 *306:X *437:A0 37.4455 
*END

*D_NET *239 0.000656548
*CONN
*I *440:A0 I *D sky130_fd_sc_hd__mux2i_1
*I *305:X O *D sky130_fd_sc_hd__clkdlybuf4s50_1
*CAP
1 *440:A0 0.00023245
2 *305:X 0.00023245
3 *440:A0 *440:A1 0.000122378
4 *442:A2 *440:A0 6.92705e-05
*RES
1 *305:X *440:A0 33.6572 
*END

*D_NET *240 0.000124161
*CONN
*I *443:A0 I *D sky130_fd_sc_hd__mux2i_1
*I *626:X O *D sky130_fd_sc_hd__clkdlybuf4s50_1
*CAP
1 *443:A0 4.91428e-05
2 *626:X 4.91428e-05
3 *445:A2 *443:A0 2.58757e-05
*RES
1 *626:X *443:A0 19.7763 
*END

*D_NET *241 0.000857243
*CONN
*I *446:A0 I *D sky130_fd_sc_hd__mux2i_1
*I *627:X O *D sky130_fd_sc_hd__clkdlybuf4s50_1
*CAP
1 *446:A0 0.000352751
2 *627:X 0.000352751
3 *446:A0 *535:RESET_B 0
4 *446:A0 *252:10 0.000151741
5 *446:A0 *295:45 0
*RES
1 *627:X *446:A0 35.3154 
*END

*D_NET *242 0.00170806
*CONN
*I *449:A0 I *D sky130_fd_sc_hd__mux2i_1
*I *628:X O *D sky130_fd_sc_hd__clkdlybuf4s50_1
*CAP
1 *449:A0 0.000647292
2 *628:X 0.000647292
3 *449:A0 *449:A1 0.000203818
4 *449:A0 *452:A 6.43474e-05
5 *449:A0 *536:CLK 0
6 *449:A0 *291:26 8.78581e-05
7 *449:A0 *292:16 4.10846e-05
8 *449:A0 *295:45 0
9 *451:A2 *449:A0 1.63649e-05
10 *536:D *449:A0 0
*RES
1 *628:X *449:A0 40.7972 
*END

*D_NET *243 0.00189934
*CONN
*I *453:B I *D sky130_fd_sc_hd__nand3b_1
*I *629:X O *D sky130_fd_sc_hd__clkdlybuf4s50_1
*CAP
1 *453:B 0.000838469
2 *629:X 0.000838469
3 *453:B *434:A1 6.32245e-05
4 *453:B *629:A 2.41274e-06
5 *453:B *287:51 1.86171e-05
6 *453:B *287:73 7.8453e-05
7 *321:A *453:B 5.96936e-05
8 *431:A0 *453:B 0
9 *433:A2 *453:B 0
10 *434:A0 *453:B 0
*RES
1 *629:X *453:B 46.3907 
*END

*D_NET *244 0.00307954
*CONN
*I *423:B2 I *D sky130_fd_sc_hd__a22o_2
*I *420:B I *D sky130_fd_sc_hd__nor2_1
*I *421:A0 I *D sky130_fd_sc_hd__mux2_2
*I *478:A I *D sky130_fd_sc_hd__ha_1
*I *527:Q O *D sky130_fd_sc_hd__dfrtp_1
*CAP
1 *423:B2 0.000157712
2 *420:B 0.000101968
3 *421:A0 0
4 *478:A 0.000101113
5 *527:Q 0.000565172
6 *244:21 0.000344377
7 *244:12 0.000430613
8 *244:8 0.000809975
9 *420:B *421:S 4.61271e-05
10 *423:B2 *478:B 0
11 *423:B2 *245:20 0
12 *244:8 *424:S 0.000151436
13 *244:8 *527:RESET_B 7.64959e-06
14 *244:12 *478:B 0
15 *244:21 *421:S 6.55265e-05
16 *421:A1 *420:B 2.20471e-05
17 *479:B *478:A 2.97979e-05
18 *479:B *244:21 9.94284e-06
19 *527:D *423:B2 1.04604e-05
20 *147:36 *423:B2 0.000178339
21 *147:36 *244:12 4.72779e-05
*RES
1 *527:Q *244:8 22.237 
2 *244:8 *244:12 6.74725 
3 *244:12 *478:A 11.6364 
4 *244:12 *244:21 5.71483 
5 *244:21 *421:A0 9.24915 
6 *244:21 *420:B 12.2151 
7 *244:8 *423:B2 18.0727 
*END

*D_NET *245 0.0024811
*CONN
*I *425:A1 I *D sky130_fd_sc_hd__a22o_2
*I *424:A0 I *D sky130_fd_sc_hd__mux2_2
*I *478:B I *D sky130_fd_sc_hd__ha_1
*I *528:Q O *D sky130_fd_sc_hd__dfrtp_1
*CAP
1 *425:A1 0
2 *424:A0 0.000203462
3 *478:B 0.000126113
4 *528:Q 0.000383995
5 *245:20 0.000415371
6 *245:16 0.000469791
7 *424:A0 *527:CLK 0.000108054
8 *245:16 *425:B2 3.30865e-05
9 *245:16 *528:RESET_B 0
10 *245:16 *286:81 4.30017e-06
11 *245:16 *299:34 7.48797e-05
12 *245:20 *527:CLK 0
13 *423:B1 *245:16 2.16355e-05
14 *423:B2 *478:B 0
15 *423:B2 *245:20 0
16 *424:A1 *478:B 1.21967e-05
17 *425:A2 *245:16 0.000248982
18 *425:B1 *478:B 0.000123597
19 *425:B1 *245:20 8.74104e-05
20 *527:D *245:16 9.04224e-05
21 *528:D *245:16 7.78069e-05
22 *244:12 *478:B 0
*RES
1 *528:Q *245:16 28.6225 
2 *245:16 *245:20 6.74725 
3 *245:20 *478:B 17.2421 
4 *245:20 *424:A0 17.2697 
5 *245:16 *425:A1 9.24915 
*END

*D_NET *246 0.00155017
*CONN
*I *479:A I *D sky130_fd_sc_hd__ha_1
*I *426:A0 I *D sky130_fd_sc_hd__mux2_2
*I *427:A1 I *D sky130_fd_sc_hd__a22o_2
*I *529:Q O *D sky130_fd_sc_hd__dfrtp_1
*CAP
1 *479:A 0.000229391
2 *426:A0 0
3 *427:A1 0.000175008
4 *529:Q 8.3495e-05
5 *246:12 0.000282597
6 *246:8 0.000420476
7 *426:A1 *427:A1 5.66363e-05
8 *426:A1 *479:A 1.41307e-05
9 *426:A1 *246:12 0.000117694
10 *529:D *427:A1 0.000119497
11 *529:D *246:12 5.12418e-05
12 *147:36 *427:A1 0
*RES
1 *529:Q *246:8 11.1059 
2 *246:8 *246:12 7.993 
3 *246:12 *427:A1 18.6175 
4 *246:12 *426:A0 13.7491 
5 *246:8 *479:A 14.4094 
*END

*D_NET *247 0.00125662
*CONN
*I *432:A I *D sky130_fd_sc_hd__nor2_1
*I *363:A2 I *D sky130_fd_sc_hd__a211o_2
*I *530:Q O *D sky130_fd_sc_hd__dfrtp_1
*CAP
1 *432:A 0.000151893
2 *363:A2 0.000128616
3 *530:Q 0.000201936
4 *247:8 0.000482444
5 *363:A2 *538:CLK 6.92705e-05
6 *363:A2 *287:10 7.06708e-05
7 *363:A2 *287:16 3.00174e-06
8 *247:8 *287:10 0.000148786
*RES
1 *530:Q *247:8 19.7337 
2 *247:8 *363:A2 17.5503 
3 *247:8 *432:A 17.2456 
*END

*D_NET *248 0.000687301
*CONN
*I *431:A1 I *D sky130_fd_sc_hd__mux2i_1
*I *435:A I *D sky130_fd_sc_hd__nor2_1
*I *531:Q O *D sky130_fd_sc_hd__dfrtp_1
*CAP
1 *431:A1 0
2 *435:A 9.29226e-05
3 *531:Q 8.13008e-05
4 *248:6 0.000174223
5 *435:A *538:CLK 0.000148159
6 *435:A *284:38 6.27718e-05
7 *435:A *287:30 2.65667e-05
8 *431:A0 *248:6 3.07159e-05
9 *433:A2 *435:A 7.06409e-05
*RES
1 *531:Q *248:6 11.0817 
2 *248:6 *435:A 22.0503 
3 *248:6 *431:A1 9.24915 
*END

*D_NET *249 0.00150453
*CONN
*I *434:A1 I *D sky130_fd_sc_hd__mux2i_1
*I *438:A I *D sky130_fd_sc_hd__nor2_1
*I *532:Q O *D sky130_fd_sc_hd__dfrtp_1
*CAP
1 *434:A1 0.000138443
2 *438:A 0.000489412
3 *532:Q 0
4 *249:4 0.000627855
5 *434:A1 *287:51 5.36913e-05
6 *434:A1 *287:73 0.000114659
7 *438:A *284:54 1.72399e-05
8 *453:B *434:A1 6.32245e-05
*RES
1 *532:Q *249:4 9.24915 
2 *249:4 *438:A 25.8616 
3 *249:4 *434:A1 22.0503 
*END

*D_NET *250 0.00123174
*CONN
*I *441:A I *D sky130_fd_sc_hd__nor2_1
*I *437:A1 I *D sky130_fd_sc_hd__mux2i_1
*I *533:Q O *D sky130_fd_sc_hd__dfrtp_1
*CAP
1 *441:A 0.000154792
2 *437:A1 0.000175483
3 *533:Q 0
4 *250:4 0.000330275
5 *437:A1 *287:51 0
6 *437:A1 *292:22 0.000165521
7 *437:A1 *292:55 0.00020146
8 *441:A *284:62 0.000165521
9 *441:A *292:20 3.86835e-05
10 *442:A2 *441:A 0
*RES
1 *533:Q *250:4 9.24915 
2 *250:4 *437:A1 14.4576 
3 *250:4 *441:A 22.7442 
*END

*D_NET *251 0.0015976
*CONN
*I *444:A I *D sky130_fd_sc_hd__nor2_1
*I *440:A1 I *D sky130_fd_sc_hd__mux2i_1
*I *534:Q O *D sky130_fd_sc_hd__dfrtp_1
*CAP
1 *444:A 0.000211537
2 *440:A1 0.000302738
3 *534:Q 0
4 *251:6 0.000514276
5 *440:A1 *533:RESET_B 4.44196e-05
6 *444:A *533:RESET_B 4.64581e-05
7 *444:A *284:72 0.000211539
8 *444:A *295:10 2.09356e-05
9 *444:A *295:12 3.75063e-05
10 *440:A0 *440:A1 0.000122378
11 *442:A2 *440:A1 0
12 *533:D *440:A1 7.50872e-05
13 *533:D *444:A 1.07248e-05
14 *534:D *444:A 0
*RES
1 *534:Q *251:6 13.7491 
2 *251:6 *440:A1 22.1209 
3 *251:6 *444:A 20.4599 
*END

*D_NET *252 0.00150987
*CONN
*I *447:A I *D sky130_fd_sc_hd__nor2_1
*I *443:A1 I *D sky130_fd_sc_hd__mux2i_1
*I *535:Q O *D sky130_fd_sc_hd__dfrtp_1
*CAP
1 *447:A 7.91206e-05
2 *443:A1 0.000136078
3 *535:Q 0.000259082
4 *252:10 0.000474281
5 *443:A1 *443:S 0
6 *447:A *447:B 5.71102e-05
7 *447:A *284:102 0.000171273
8 *252:10 *535:RESET_B 3.18172e-05
9 *252:10 *253:12 0
10 *252:10 *295:45 0
11 *446:A0 *252:10 0.000151741
12 *448:A2 *447:A 6.16701e-05
13 *448:B1 *447:A 6.92705e-05
14 *535:D *447:A 1.84293e-05
*RES
1 *535:Q *252:10 19.2141 
2 *252:10 *443:A1 16.8269 
3 *252:10 *447:A 17.9931 
*END

*D_NET *253 0.00254978
*CONN
*I *450:A I *D sky130_fd_sc_hd__nor2_1
*I *446:A1 I *D sky130_fd_sc_hd__mux2i_1
*I *536:Q O *D sky130_fd_sc_hd__dfrtp_1
*CAP
1 *450:A 0.000102247
2 *446:A1 8.21949e-05
3 *536:Q 0.000803362
4 *253:12 0.000987804
5 *446:A1 *284:102 6.8484e-05
6 *450:A *450:B 1.72399e-05
7 *450:A *284:102 0.000158357
8 *450:A *287:85 2.93004e-05
9 *253:12 *536:RESET_B 2.09869e-05
10 *253:12 *536:CLK 2.82089e-05
11 *253:12 *537:CLK 3.25584e-05
12 *253:12 *254:8 1.08524e-05
13 *253:12 *295:45 3.92275e-05
14 *448:A2 *450:A 0
15 *451:B1 *450:A 0.000142389
16 *536:D *253:12 2.65667e-05
17 *252:10 *253:12 0
*RES
1 *536:Q *253:12 30.7874 
2 *253:12 *446:A1 11.6364 
3 *253:12 *450:A 13.5172 
*END

*D_NET *254 0.00420253
*CONN
*I *452:A I *D sky130_fd_sc_hd__inv_1
*I *449:A1 I *D sky130_fd_sc_hd__mux2i_1
*I *537:Q O *D sky130_fd_sc_hd__dfrtp_1
*CAP
1 *452:A 0.000160127
2 *449:A1 9.12305e-05
3 *537:Q 0.000919389
4 *254:8 0.00117075
5 *449:A1 *654:A 6.69207e-05
6 *452:A *487:RESET_B 5.66868e-06
7 *452:A *536:CLK 0
8 *452:A *654:A 2.69064e-05
9 *452:A *291:22 0.000442831
10 *452:A *291:26 0.000213725
11 *452:A *296:110 0.000503678
12 *254:8 *537:RESET_B 5.58964e-05
13 *254:8 *537:CLK 7.48797e-05
14 *449:A0 *449:A1 0.000203818
15 *449:A0 *452:A 6.43474e-05
16 *537:D *254:8 0.000191516
17 *253:12 *254:8 1.08524e-05
*RES
1 *537:Q *254:8 28.3376 
2 *254:8 *449:A1 17.6574 
3 *254:8 *452:A 23.0314 
*END

*D_NET *255 0.00542705
*CONN
*I *311:B2 I *D sky130_fd_sc_hd__a22o_1
*I *475:S I *D sky130_fd_sc_hd__mux2i_1
*I *422:A I *D sky130_fd_sc_hd__nor2_4
*I *429:A1 I *D sky130_fd_sc_hd__a211oi_4
*I *316:B2 I *D sky130_fd_sc_hd__a22o_1
*I *363:B1 I *D sky130_fd_sc_hd__a211o_2
*I *538:Q O *D sky130_fd_sc_hd__dfstp_2
*CAP
1 *311:B2 0
2 *475:S 0.000287481
3 *422:A 0.000306469
4 *429:A1 0
5 *316:B2 2.9922e-05
6 *363:B1 6.98489e-05
7 *538:Q 0
8 *255:62 0.000453737
9 *255:34 0.0003809
10 *255:23 0.000166346
11 *255:10 0.000855161
12 *255:4 0.000889575
13 *316:B2 *363:C1 2.16355e-05
14 *363:B1 *363:C1 6.08467e-05
15 *363:B1 *538:CLK 4.07355e-05
16 *363:B1 *296:58 0.000107496
17 *422:A *428:A 0.000191312
18 *422:A *646:A 2.65831e-05
19 *422:A *286:44 5.37221e-06
20 *422:A *296:70 4.36455e-05
21 *422:A *296:84 3.20069e-06
22 *475:S *547:CLK 3.78605e-05
23 *475:S *296:29 0
24 *255:10 *363:C1 2.86829e-05
25 *255:10 *538:CLK 5.04829e-06
26 *255:10 *546:SET_B 3.15845e-05
27 *255:10 *296:58 1.84367e-05
28 *255:23 *363:C1 8.12683e-05
29 *255:23 *296:70 2.44579e-05
30 *255:34 *296:70 0.000100125
31 *255:62 *547:CLK 1.2601e-05
32 *255:62 *258:43 4.20662e-05
33 *255:62 *290:22 2.75292e-05
34 *311:A2 *255:62 4.88955e-05
35 *429:A2 *255:23 2.1667e-05
36 *429:A2 *255:34 0.000198334
37 *429:C1 *422:A 8.19762e-05
38 *475:A0 *475:S 0
39 *476:C *255:10 0.000266846
40 *476:C *255:62 6.50727e-05
41 *477:A2 *475:S 4.07936e-05
42 *538:D *255:10 7.58194e-05
43 *547:D *475:S 6.31665e-05
44 *83:10 *255:10 0.000101239
45 *83:10 *255:23 0.000113309
*RES
1 *538:Q *255:4 9.24915 
2 *255:4 *255:10 17.0383 
3 *255:10 *363:B1 16.1605 
4 *255:10 *255:23 2.6625 
5 *255:23 *316:B2 14.4725 
6 *255:23 *255:34 3.90826 
7 *255:34 *429:A1 13.7491 
8 *255:34 *422:A 21.2048 
9 *255:4 *255:62 8.4405 
10 *255:62 *475:S 21.4269 
11 *255:62 *311:B2 13.7491 
*END

*D_NET *256 0.00154974
*CONN
*I *457:B I *D sky130_fd_sc_hd__nand2b_1
*I *645:A I *D sky130_fd_sc_hd__buf_4
*I *539:Q O *D sky130_fd_sc_hd__dfrtp_1
*CAP
1 *457:B 7.46369e-05
2 *645:A 0.000575332
3 *539:Q 0
4 *256:4 0.000649969
5 *457:B *457:A_N 6.92705e-05
6 *645:A *457:A_N 3.58208e-05
7 *645:A *263:8 7.40253e-05
8 *645:A *297:8 0
9 *459:B1 *457:B 0
10 *80:25 *645:A 2.44579e-05
11 *147:69 *457:B 1.14755e-05
12 *147:69 *645:A 3.47498e-05
13 *171:10 *457:B 0
*RES
1 *539:Q *256:4 9.24915 
2 *256:4 *645:A 27.875 
3 *256:4 *457:B 11.8594 
*END

*D_NET *257 0.00489467
*CONN
*I *456:B I *D sky130_fd_sc_hd__nor2_2
*I *314:B2 I *D sky130_fd_sc_hd__a22o_1
*I *311:A1 I *D sky130_fd_sc_hd__a22o_1
*I *540:Q O *D sky130_fd_sc_hd__dfrtp_1
*CAP
1 *456:B 0.000243556
2 *314:B2 0.000338
3 *311:A1 0.000401683
4 *540:Q 0.000187168
5 *257:16 0.00132559
6 *257:10 0.00101663
7 *311:A1 *476:A 0
8 *311:A1 *540:CLK 1.41976e-05
9 *311:A1 *258:43 5.44326e-05
10 *314:B2 *422:B 1.47978e-05
11 *314:B2 *548:CLK 9.905e-05
12 *314:B2 *258:37 3.02163e-05
13 *314:B2 *258:43 5.65046e-05
14 *314:B2 *286:10 4.54832e-05
15 *456:B *258:27 3.44412e-06
16 *456:B *258:37 4.97864e-05
17 *257:10 *540:RESET_B 1.21461e-06
18 *257:16 *538:SET_B 0.000448805
19 *311:A2 *257:16 0.000110684
20 *311:B1 *311:A1 3.72827e-05
21 *314:B1 *314:B2 1.21985e-05
22 *476:C *311:A1 2.22788e-05
23 *476:C *257:16 6.23875e-05
24 *477:B1 *311:A1 0.000179385
25 *539:D *314:B2 0
26 *540:D *311:A1 0
27 *655:A *456:B 4.49959e-05
28 *655:A *257:10 4.44462e-05
29 *20:19 *314:B2 5.04597e-05
*RES
1 *540:Q *257:10 17.6896 
2 *257:10 *257:16 24.6977 
3 *257:16 *311:A1 22.6087 
4 *257:16 *314:B2 23.6291 
5 *257:10 *456:B 20.5642 
*END

*D_NET *258 0.00741032
*CONN
*I *456:A I *D sky130_fd_sc_hd__nor2_2
*I *316:A1 I *D sky130_fd_sc_hd__a22o_1
*I *363:C1 I *D sky130_fd_sc_hd__a211o_2
*I *477:A1 I *D sky130_fd_sc_hd__o21ai_0
*I *476:A I *D sky130_fd_sc_hd__nand3_1
*I *309:B2 I *D sky130_fd_sc_hd__a32o_1
*I *541:Q O *D sky130_fd_sc_hd__dfrtp_1
*CAP
1 *456:A 0
2 *316:A1 0
3 *363:C1 0.000228241
4 *477:A1 0
5 *476:A 1.90862e-05
6 *309:B2 0.000190433
7 *541:Q 0.000124926
8 *258:61 0.000535557
9 *258:43 0.000228557
10 *258:37 0.0011376
11 *258:27 0.00118795
12 *258:12 0.000882499
13 *363:C1 *538:CLK 6.50727e-05
14 *363:C1 *546:SET_B 4.9e-05
15 *363:C1 *296:70 7.26748e-05
16 *258:12 *541:RESET_B 4.519e-05
17 *258:12 *293:67 0
18 *258:12 *293:169 1.29737e-06
19 *258:27 *457:A_N 0.000117423
20 *258:27 *458:B1 0
21 *258:27 *541:RESET_B 0
22 *258:27 *285:42 0
23 *258:27 *290:10 0.000122098
24 *311:A1 *476:A 0
25 *311:A1 *258:43 5.44326e-05
26 *311:B1 *476:A 6.92705e-05
27 *311:B1 *258:43 4.0752e-05
28 *314:B2 *258:37 3.02163e-05
29 *314:B2 *258:43 5.65046e-05
30 *316:A2 *258:61 0.000566847
31 *316:B2 *363:C1 2.16355e-05
32 *363:B1 *363:C1 6.08467e-05
33 *456:B *258:27 3.44412e-06
34 *456:B *258:37 4.97864e-05
35 *469:A1 *258:27 0
36 *476:C *258:43 0
37 *477:B1 *476:A 2.71651e-05
38 *477:B1 *258:43 0.000118166
39 *538:D *258:61 0.000112808
40 *656:A *258:37 0.000302156
41 *20:8 *258:37 0.000137162
42 *20:8 *258:61 0.000104639
43 *80:10 *309:B2 7.76234e-05
44 *80:10 *258:27 4.43897e-05
45 *80:25 *258:37 0.000132777
46 *80:33 *258:37 3.20407e-05
47 *80:33 *258:43 0.000186508
48 *147:71 *258:27 0
49 *171:31 *258:27 0
50 *201:14 *258:37 5.04829e-06
51 *235:45 *476:A 1.64789e-05
52 *255:10 *363:C1 2.86829e-05
53 *255:23 *363:C1 8.12683e-05
54 *255:62 *258:43 4.20662e-05
*RES
1 *541:Q *258:12 20.8045 
2 *258:12 *309:B2 13.8789 
3 *258:12 *258:27 18.5487 
4 *258:27 *258:37 26.4192 
5 *258:37 *258:43 11.7625 
6 *258:43 *476:A 10.5513 
7 *258:43 *477:A1 9.24915 
8 *258:37 *258:61 14.0971 
9 *258:61 *363:C1 23.6311 
10 *258:61 *316:A1 9.24915 
11 *258:27 *456:A 13.7491 
*END

*D_NET *259 0.00380942
*CONN
*I *485:A I *D sky130_fd_sc_hd__ha_1
*I *471:B I *D sky130_fd_sc_hd__nand3_1
*I *455:A I *D sky130_fd_sc_hd__inv_1
*I *542:Q O *D sky130_fd_sc_hd__dfrtp_1
*CAP
1 *485:A 0
2 *471:B 0.00027664
3 *455:A 2.01684e-05
4 *542:Q 0.00084654
5 *259:25 0.000450639
6 *259:10 0.00104071
7 *455:A *542:CLK 0.000136879
8 *471:B *471:C 0.0002396
9 *471:B *485:B 2.16355e-05
10 *471:B *285:32 3.20407e-05
11 *259:10 *542:CLK 0.000289941
12 *259:25 *471:C 1.27331e-05
13 *259:25 *260:12 1.48017e-05
14 *259:25 *260:14 1.15766e-05
15 *461:B *455:A 6.32655e-05
16 *462:A1 *455:A 8.9116e-05
17 *462:A1 *259:10 4.94594e-05
18 *462:B1 *259:10 0.000102045
19 *465:A2 *259:25 6.84074e-06
20 *473:B2 *471:B 2.78496e-05
21 *542:D *259:10 1.08799e-05
22 *173:40 *259:25 6.60603e-05
*RES
1 *542:Q *259:10 24.8504 
2 *259:10 *455:A 10.7743 
3 *259:10 *259:25 13.2164 
4 *259:25 *471:B 25.962 
5 *259:25 *485:A 9.24915 
*END

*D_NET *260 0.00217868
*CONN
*I *463:A I *D sky130_fd_sc_hd__inv_1
*I *485:B I *D sky130_fd_sc_hd__ha_1
*I *471:C I *D sky130_fd_sc_hd__nand3_1
*I *543:Q O *D sky130_fd_sc_hd__dfrtp_1
*CAP
1 *463:A 0.000202878
2 *485:B 4.96551e-05
3 *471:C 0.000138944
4 *543:Q 0.00025684
5 *260:14 0.000244531
6 *260:12 0.00051565
7 *463:A *542:CLK 5.50377e-05
8 *471:C *285:32 2.44579e-05
9 *260:12 *543:RESET_B 0.000114915
10 *260:12 *285:26 4.5539e-05
11 *260:12 *285:32 2.68066e-05
12 *260:14 *285:32 2.41266e-05
13 *461:B *463:A 4.05158e-05
14 *462:B1 *463:A 6.50586e-05
15 *465:A1 *463:A 2.59857e-05
16 *465:A2 *463:A 4.73933e-05
17 *471:B *471:C 0.0002396
18 *471:B *485:B 2.16355e-05
19 *259:25 *471:C 1.27331e-05
20 *259:25 *260:12 1.48017e-05
21 *259:25 *260:14 1.15766e-05
*RES
1 *543:Q *260:12 19.2529 
2 *260:12 *260:14 1.41674 
3 *260:14 *471:C 18.3808 
4 *260:14 *485:B 14.4725 
5 *260:12 *463:A 19.6388 
*END

*D_NET *261 0.00489089
*CONN
*I *470:B2 I *D sky130_fd_sc_hd__a32o_1
*I *467:A I *D sky130_fd_sc_hd__nor2b_1
*I *471:A I *D sky130_fd_sc_hd__nand3_1
*I *307:A I *D sky130_fd_sc_hd__and3_1
*I *544:Q O *D sky130_fd_sc_hd__dfrtp_1
*CAP
1 *470:B2 0.00011883
2 *467:A 3.28287e-05
3 *471:A 0.000175694
4 *307:A 1.74538e-05
5 *544:Q 0.000670848
6 *261:22 0.00071155
7 *261:8 0.000850565
8 *261:6 0.00108901
9 *467:B_N *467:A 4.65954e-06
10 *468:A2 *467:A 7.06733e-06
11 *468:A2 *261:22 1.41976e-05
12 *468:B1 *261:22 1.16654e-05
13 *470:A1 *470:B2 8.22396e-05
14 *470:A2 *470:B2 2.48602e-05
15 *470:A3 *261:8 0.000116553
16 *473:A2 *261:22 0.000100913
17 *473:B2 *307:A 3.01683e-06
18 *473:B2 *261:22 9.04224e-05
19 *474:A3 *471:A 3.2464e-05
20 *474:B1 *307:A 1.05106e-05
21 *474:B1 *471:A 0.000132464
22 *474:B1 *261:22 2.06983e-05
23 *544:D *470:B2 7.04127e-05
24 *34:10 *471:A 2.39287e-05
25 *34:16 *261:8 2.49771e-05
26 *34:16 *261:22 2.49771e-05
27 *79:20 *471:A 0.000215708
28 *79:20 *261:22 0.000110306
29 *170:27 *261:22 0.000100655
30 *173:12 *261:8 1.4091e-06
*RES
1 *544:Q *261:6 18.8462 
2 *261:6 *261:8 4.60562 
3 *261:8 *261:22 20.6599 
4 *261:22 *307:A 9.82786 
5 *261:22 *471:A 23.99 
6 *261:8 *467:A 10.2378 
7 *261:6 *470:B2 21.635 
*END

*D_NET *262 0.00320032
*CONN
*I *307:B I *D sky130_fd_sc_hd__and3_1
*I *474:B2 I *D sky130_fd_sc_hd__a32o_1
*I *472:A I *D sky130_fd_sc_hd__nor2_1
*I *545:Q O *D sky130_fd_sc_hd__dfrtp_1
*CAP
1 *307:B 0.00031123
2 *474:B2 0
3 *472:A 0.000388013
4 *545:Q 0.000471383
5 *262:21 0.000407861
6 *262:6 0.000956026
7 *262:21 *298:17 0.000118002
8 *472:B *472:A 4.76161e-06
9 *474:A2 *307:B 0.000208606
10 *474:A3 *307:B 3.31745e-05
11 *474:B1 *307:B 2.90062e-05
12 *545:D *307:B 0.000161956
13 *79:20 *307:B 0.000110297
*RES
1 *545:Q *262:6 16.0732 
2 *262:6 *472:A 15.2533 
3 *262:6 *262:21 11.2472 
4 *262:21 *474:B2 9.24915 
5 *262:21 *307:B 17.7852 
*END

*D_NET *263 0.00895973
*CONN
*I *457:A_N I *D sky130_fd_sc_hd__nand2b_1
*I *309:A1 I *D sky130_fd_sc_hd__a32o_1
*I *312:A I *D sky130_fd_sc_hd__nand2_1
*I *424:S I *D sky130_fd_sc_hd__mux2_2
*I *421:S I *D sky130_fd_sc_hd__mux2_2
*I *426:S I *D sky130_fd_sc_hd__mux2_2
*I *428:A I *D sky130_fd_sc_hd__nor2b_1
*I *548:Q O *D sky130_fd_sc_hd__dfrtp_1
*CAP
1 *457:A_N 0.000594878
2 *309:A1 0.000200762
3 *312:A 1.90605e-05
4 *424:S 0.000380558
5 *421:S 9.66966e-05
6 *426:S 0.000265594
7 *428:A 0.000242527
8 *548:Q 0
9 *263:50 0.000658924
10 *263:39 0.000562002
11 *263:24 0.000534926
12 *263:20 0.00039523
13 *263:8 0.000569409
14 *263:4 0.000765016
15 *309:A1 *541:RESET_B 0
16 *424:S *527:CLK 0.000265211
17 *424:S *286:81 0.000212948
18 *428:A *422:B 0.000120695
19 *428:A *286:27 0.000114955
20 *428:A *286:44 0.000254911
21 *428:A *286:63 1.64789e-05
22 *457:A_N *541:RESET_B 1.2601e-05
23 *457:A_N *286:10 4.63588e-05
24 *457:A_N *297:8 2.15543e-05
25 *263:8 *541:RESET_B 0
26 *263:8 *297:8 0
27 *263:20 *286:21 0
28 *263:20 *290:20 0.000304147
29 *263:39 *286:27 0.000179286
30 *263:39 *286:81 4.58723e-05
31 *263:50 *286:81 0.00032598
32 *309:B1 *309:A1 3.85049e-05
33 *312:B *312:A 4.80635e-06
34 *312:B *263:20 6.9815e-05
35 *312:B *263:24 4.81015e-05
36 *314:A2 *263:24 2.16355e-05
37 *420:B *421:S 4.61271e-05
38 *421:A1 *421:S 6.46815e-05
39 *422:A *428:A 0.000191312
40 *423:A2 *424:S 0.000120767
41 *425:B1 *424:S 2.65667e-05
42 *457:B *457:A_N 6.92705e-05
43 *527:D *424:S 5.89592e-05
44 *645:A *457:A_N 3.58208e-05
45 *645:A *263:8 7.40253e-05
46 *80:10 *309:A1 4.66492e-05
47 *80:25 *309:A1 8.89094e-05
48 *80:25 *263:8 0.000365952
49 *80:25 *263:20 1.03986e-05
50 *147:15 *428:A 0
51 *147:15 *263:39 0
52 *147:36 *263:39 0
53 *147:36 *263:50 0
54 *147:69 *457:A_N 3.6455e-05
55 *244:8 *424:S 0.000151436
56 *244:21 *421:S 6.55265e-05
57 *258:27 *457:A_N 0.000117423
*RES
1 *548:Q *263:4 9.24915 
2 *263:4 *263:8 10.8998 
3 *263:8 *263:20 19.2759 
4 *263:20 *263:24 8.55102 
5 *263:24 *428:A 23.675 
6 *263:24 *263:39 3.90826 
7 *263:39 *426:S 19.464 
8 *263:39 *263:50 5.98452 
9 *263:50 *421:S 16.691 
10 *263:50 *424:S 26.6999 
11 *263:20 *312:A 9.82786 
12 *263:8 *309:A1 17.9925 
13 *263:4 *457:A_N 29.153 
*END

*D_NET *264 0.00155092
*CONN
*I *315:B I *D sky130_fd_sc_hd__nand2b_1
*I *310:B_N I *D sky130_fd_sc_hd__nor2b_1
*I *630:X O *D sky130_fd_sc_hd__clkdlybuf4s50_1
*CAP
1 *315:B 0.000230268
2 *310:B_N 0
3 *630:X 0.000344292
4 *264:10 0.00057456
5 *264:10 tx 1.15766e-05
6 *311:B1 *315:B 0
7 *475:A1 *315:B 0
8 *475:A1 *264:10 0
9 *235:34 *315:B 0
10 *235:45 *315:B 0.000390219
*RES
1 *630:X *264:10 19.7687 
2 *264:10 *310:B_N 13.7491 
3 *264:10 *315:B 20.6435 
*END

*D_NET *267 0.0012892
*CONN
*P tx_data[4] I
*I *626:A I *D sky130_fd_sc_hd__clkdlybuf4s50_1
*CAP
1 tx_data[4] 0.000644598
2 *626:A 0.000644598
3 *626:A *535:CLK 0
4 *626:A *627:A 0
5 *626:A *628:A 0
6 *535:D *626:A 0
*RES
1 tx_data[4] *626:A 27.5173 
*END

*D_NET *268 0.00147483
*CONN
*P tx_data[5] I
*I *627:A I *D sky130_fd_sc_hd__clkdlybuf4s50_1
*CAP
1 tx_data[5] 0.000578736
2 *627:A 0.000578736
3 *627:A *628:A 0.00031736
4 *535:D *627:A 0
5 *626:A *627:A 0
*RES
1 tx_data[5] *627:A 31.946 
*END

*D_NET *269 0.00192536
*CONN
*P tx_data[6] I
*I *628:A I *D sky130_fd_sc_hd__clkdlybuf4s50_1
*CAP
1 tx_data[6] 0.000804002
2 *628:A 0.000804002
3 *626:A *628:A 0
4 *627:A *628:A 0.00031736
*RES
1 tx_data[6] *628:A 20.6521 
*END

*D_NET *270 0.00130897
*CONN
*P tx_data[7] I
*I *629:A I *D sky130_fd_sc_hd__clkdlybuf4s50_1
*CAP
1 tx_data[7] 0.000439664
2 *629:A 0.000439664
3 *319:A *629:A 0
4 *321:A *629:A 0.000427224
5 *453:B *629:A 2.41274e-06
*RES
1 tx_data[7] *629:A 29.4388 
*END

*D_NET *271 0.00130532
*CONN
*P tx_start I
*I *630:A I *D sky130_fd_sc_hd__clkdlybuf4s50_1
*CAP
1 tx_start 0.000437311
2 *630:A 0.000437311
3 *630:A tx 0
4 *630:A tx_busy 0.000430697
*RES
1 tx_start *630:A 29.4388 
*END

*D_NET *272 0.00344305
*CONN
*P rx_data[0] O
*I *631:X O *D sky130_fd_sc_hd__clkdlybuf4s50_1
*CAP
1 rx_data[0] 0.00113754
2 *631:X 0.00113754
3 rx_data[0] rx_data[5] 0.000376452
4 rx_data[0] rx_data[7] 0
5 rx_data[0] *503:RESET_B 1.29996e-05
6 rx_data[0] *512:RESET_B 0.000267649
7 rx_data[0] *297:137 0.000188651
8 rx_data[0] *297:151 9.30553e-05
9 *377:S rx_data[0] 0
10 *514:D rx_data[0] 0
11 *638:A rx_data[0] 6.49002e-05
12 *118:29 rx_data[0] 0.000164257
*RES
1 *631:X rx_data[0] 46.0573 
*END

*D_NET *273 0.00118065
*CONN
*P rx_data[1] O
*I *632:X O *D sky130_fd_sc_hd__clkdlybuf4s50_1
*CAP
1 rx_data[1] 0.000590327
2 *632:X 0.000590327
*RES
1 *632:X rx_data[1] 28.6816 
*END

*D_NET *274 0.00152912
*CONN
*P rx_data[2] O
*I *633:X O *D sky130_fd_sc_hd__clkdlybuf4s50_1
*CAP
1 rx_data[2] 0.0007388
2 *633:X 0.0007388
3 rx_data[2] *297:305 0
4 *633:A rx_data[2] 5.15155e-05
*RES
1 *633:X rx_data[2] 20.6849 
*END

*D_NET *275 0.00111
*CONN
*P rx_data[3] O
*I *634:X O *D sky130_fd_sc_hd__clkdlybuf4s50_1
*CAP
1 rx_data[3] 0.000554998
2 *634:X 0.000554998
3 rx_data[3] rx_data[4] 0
*RES
1 *634:X rx_data[3] 27.7778 
*END

*D_NET *276 0.00161662
*CONN
*P rx_data[4] O
*I *635:X O *D sky130_fd_sc_hd__clkdlybuf4s50_1
*CAP
1 rx_data[4] 0.000749229
2 *635:X 0.000749229
3 rx_data[4] *510:RESET_B 0.000118166
4 rx_data[3] rx_data[4] 0
5 *634:A rx_data[4] 0
*RES
1 *635:X rx_data[4] 32.2091 
*END

*D_NET *277 0.00115767
*CONN
*P rx_data[5] O
*I *636:X O *D sky130_fd_sc_hd__clkdlybuf4s50_1
*CAP
1 rx_data[5] 0.00039061
2 *636:X 0.00039061
3 rx_data[0] rx_data[5] 0.000376452
*RES
1 *636:X rx_data[5] 27.2232 
*END

*D_NET *278 0.00118111
*CONN
*P rx_data[6] O
*I *637:X O *D sky130_fd_sc_hd__clkdlybuf4s50_1
*CAP
1 rx_data[6] 0.000590553
2 *637:X 0.000590553
3 rx_data[6] rx_done 0
*RES
1 *637:X rx_data[6] 28.3324 
*END

*D_NET *279 0.00104423
*CONN
*P rx_data[7] O
*I *638:X O *D sky130_fd_sc_hd__clkdlybuf4s50_1
*CAP
1 rx_data[7] 0.000522114
2 *638:X 0.000522114
3 rx_data[7] rx_done 0
4 rx_data[0] rx_data[7] 0
*RES
1 *638:X rx_data[7] 27.2232 
*END

*D_NET *280 0.00158143
*CONN
*P rx_done O
*I *639:X O *D sky130_fd_sc_hd__clkdlybuf4s50_1
*CAP
1 rx_done 0.000790716
2 *639:X 0.000790716
3 rx_data[6] rx_done 0
4 rx_data[7] rx_done 0
5 *637:A rx_done 0
*RES
1 *639:X rx_done 34.8049 
*END

*D_NET *281 0.00163183
*CONN
*P tx O
*I *640:X O *D sky130_fd_sc_hd__clkdlybuf4s50_1
*CAP
1 tx 0.000810127
2 *640:X 0.000810127
3 *630:A tx 0
4 *264:10 tx 1.15766e-05
*RES
1 *640:X tx 35.9607 
*END

*D_NET *282 0.00193951
*CONN
*P tx_busy O
*I *641:X O *D sky130_fd_sc_hd__clkdlybuf4s50_1
*CAP
1 tx_busy 0.000716964
2 *641:X 0.000716964
3 tx_busy *546:SET_B 0
4 *546:D tx_busy 0
5 *630:A tx_busy 0.000430697
6 *641:A tx_busy 7.48797e-05
*RES
1 *641:X tx_busy 35.807 
*END

*D_NET *283 0.00586588
*CONN
*I *486:D I *D sky130_fd_sc_hd__dfrtp_1
*I *345:A I *D sky130_fd_sc_hd__nor2_1
*I *342:A I *D sky130_fd_sc_hd__nor2_1
*I *339:B I *D sky130_fd_sc_hd__nor2_1
*I *340:A I *D sky130_fd_sc_hd__nor2b_1
*I *642:X O *D sky130_fd_sc_hd__buf_4
*CAP
1 *486:D 0.000342923
2 *345:A 0.000110193
3 *342:A 2.12792e-05
4 *339:B 0
5 *340:A 8.80414e-05
6 *642:X 0.000209604
7 *283:20 0.000451099
8 *283:16 0.000755903
9 *283:10 0.000878971
10 *283:6 0.000949739
11 *283:10 *491:CLK 0.000155484
12 *283:16 *491:CLK 6.5713e-05
13 *283:16 *664:A 0.000310724
14 *283:16 *291:10 0.000104372
15 *283:16 *293:91 0
16 *339:A *283:20 0.000410556
17 *345:B *345:A 0.000113968
18 *347:B *283:10 0.000126335
19 *356:B1 *283:6 0.000175485
20 *487:D *340:A 2.56919e-05
21 *487:D *283:20 1.24886e-05
22 *488:D *340:A 2.84758e-05
23 *489:D *283:16 3.58759e-05
24 *489:D *283:20 1.83992e-05
25 *490:D *345:A 2.57986e-05
26 *104:29 *283:10 0
27 *194:6 *345:A 5.51483e-06
28 *194:21 *283:10 0.000350816
29 *194:21 *283:16 8.01987e-05
30 *195:12 *283:10 1.22289e-05
*RES
1 *642:X *283:6 14.4094 
2 *283:6 *283:10 17.1286 
3 *283:10 *283:16 16.4752 
4 *283:16 *283:20 10.1758 
5 *283:20 *340:A 11.6364 
6 *283:20 *339:B 9.24915 
7 *283:16 *342:A 9.82786 
8 *283:10 *345:A 16.7151 
9 *283:6 *486:D 16.6278 
*END

*D_NET *284 0.0101516
*CONN
*I *432:B I *D sky130_fd_sc_hd__nor2_1
*I *433:A1 I *D sky130_fd_sc_hd__a21oi_2
*I *435:B I *D sky130_fd_sc_hd__nor2_1
*I *436:A1 I *D sky130_fd_sc_hd__a21oi_2
*I *438:B I *D sky130_fd_sc_hd__nor2_1
*I *439:A1 I *D sky130_fd_sc_hd__a21oi_1
*I *441:B I *D sky130_fd_sc_hd__nor2_1
*I *442:A1 I *D sky130_fd_sc_hd__a21oi_1
*I *451:A1 I *D sky130_fd_sc_hd__a21oi_1
*I *450:B I *D sky130_fd_sc_hd__nor2_1
*I *448:A1 I *D sky130_fd_sc_hd__a21oi_1
*I *447:B I *D sky130_fd_sc_hd__nor2_1
*I *444:B I *D sky130_fd_sc_hd__nor2_1
*I *445:A1 I *D sky130_fd_sc_hd__a21oi_1
*I *454:A2 I *D sky130_fd_sc_hd__o21ai_0
*I *453:C I *D sky130_fd_sc_hd__nand3b_1
*I *643:X O *D sky130_fd_sc_hd__buf_12
*CAP
1 *432:B 5.93391e-05
2 *433:A1 7.96534e-05
3 *435:B 2.1308e-05
4 *436:A1 0
5 *438:B 0
6 *439:A1 1.15977e-05
7 *441:B 2.53344e-05
8 *442:A1 0
9 *451:A1 0.000202671
10 *450:B 2.71683e-06
11 *448:A1 0
12 *447:B 0.000200297
13 *444:B 1.32047e-05
14 *445:A1 5.30977e-05
15 *454:A2 0.000201454
16 *453:C 0.000242787
17 *643:X 1.93533e-05
18 *284:176 0.000138992
19 *284:102 0.000507054
20 *284:96 0.000344343
21 *284:92 0.000442985
22 *284:72 0.000250715
23 *284:68 0.000497729
24 *284:64 0.000173276
25 *284:62 0.000323189
26 *284:60 0.000344572
27 *284:54 0.000224729
28 *284:44 0.000460869
29 *284:38 0.000599591
30 *284:32 0.000385319
31 *284:8 0.000519531
32 *284:6 0.000238344
33 *450:B *287:85 1.08178e-06
34 *451:A1 *536:RESET_B 0
35 *451:A1 *287:85 6.28701e-05
36 *284:38 *538:CLK 2.65831e-05
37 *284:38 *287:30 3.20016e-05
38 *284:44 *287:30 9.17814e-05
39 *284:44 *287:41 0.0003071
40 *284:68 *533:RESET_B 8.36586e-06
41 *284:68 *295:10 7.88662e-05
42 *284:68 *295:12 9.43419e-05
43 *284:72 *532:RESET_B 1.03403e-05
44 *284:92 *292:16 0
45 *284:92 *295:10 0.000161318
46 *284:92 *295:45 0.000145098
47 *284:96 *292:16 0
48 *284:96 *295:45 3.50455e-05
49 *284:102 *443:S 2.16355e-05
50 *284:102 *446:S 1.03434e-05
51 *284:102 *287:85 3.82228e-05
52 *433:B1 *432:B 0.000114271
53 *435:A *284:38 6.27718e-05
54 *436:A2 *284:44 9.82896e-06
55 *436:A2 *284:54 4.79833e-05
56 *436:B1 *284:44 4.69192e-05
57 *438:A *284:54 1.72399e-05
58 *439:B1 *439:A1 4.76161e-06
59 *439:B1 *284:54 5.31074e-05
60 *439:B1 *284:60 0.000206258
61 *439:B1 *284:62 5.0715e-05
62 *441:A *284:62 0.000165521
63 *442:B1 *441:B 6.92705e-05
64 *442:B1 *284:64 4.0752e-05
65 *444:A *284:72 0.000211539
66 *445:B1 *445:A1 5.31465e-05
67 *445:B1 *284:72 2.30636e-05
68 *446:A1 *284:102 6.8484e-05
69 *447:A *447:B 5.71102e-05
70 *447:A *284:102 0.000171273
71 *448:A2 *284:102 0
72 *448:B1 *447:B 0.000122378
73 *450:A *450:B 1.72399e-05
74 *450:A *284:102 0.000158357
75 *451:B1 *451:A1 1.37514e-05
76 *454:B1 *453:C 7.69213e-05
77 *454:B1 *454:A2 0.000141398
78 *454:B1 *284:8 2.41961e-05
79 *530:D *433:A1 7.01935e-06
80 *530:D *454:A2 0.000161165
81 *531:D *284:44 6.22703e-05
82 *531:D *284:54 5.04829e-06
83 *535:D *447:B 3.62662e-06
84 *643:A *284:6 6.27782e-05
85 *643:A *284:8 0.000112361
*RES
1 *643:X *284:6 9.97254 
2 *284:6 *284:8 2.38721 
3 *284:8 *453:C 14.9881 
4 *284:8 *454:A2 25.0642 
5 *284:6 *284:32 7.993 
6 *284:32 *284:38 10.1043 
7 *284:38 *284:44 9.78996 
8 *284:44 *284:54 4.43683 
9 *284:54 *284:60 3.68932 
10 *284:60 *284:62 5.71483 
11 *284:62 *284:64 1.8326 
12 *284:64 *284:68 7.57775 
13 *284:68 *284:72 9.66022 
14 *284:72 *445:A1 11.1059 
15 *284:72 *444:B 9.82786 
16 *284:68 *284:92 6.16772 
17 *284:92 *284:96 5.63584 
18 *284:96 *284:102 7.42687 
19 *284:102 *447:B 13.1796 
20 *284:102 *448:A1 9.24915 
21 *284:96 *450:B 9.45411 
22 *284:92 *451:A1 17.6114 
23 *284:64 *442:A1 9.24915 
24 *284:62 *441:B 10.5513 
25 *284:60 *439:A1 9.82786 
26 *284:54 *438:B 9.24915 
27 *284:44 *436:A1 9.24915 
28 *284:38 *435:B 9.82786 
29 *284:32 *284:176 4.5 
30 *284:176 *433:A1 11.0817 
31 *284:176 *432:B 11.0817 
*END

*D_NET *285 0.010272
*CONN
*I *410:B I *D sky130_fd_sc_hd__nand2_1
*I *402:A I *D sky130_fd_sc_hd__inv_1
*I *461:A I *D sky130_fd_sc_hd__nand3_1
*I *464:A I *D sky130_fd_sc_hd__nand3_1
*I *308:A I *D sky130_fd_sc_hd__nand2_1
*I *458:B1 I *D sky130_fd_sc_hd__a21oi_1
*I *644:X O *D sky130_fd_sc_hd__buf_4
*CAP
1 *410:B 4.92374e-05
2 *402:A 0.000300865
3 *461:A 4.01245e-05
4 *464:A 0
5 *308:A 0
6 *458:B1 0.000523173
7 *644:X 0.000485432
8 *285:42 0.000917778
9 *285:32 0.000609142
10 *285:26 0.00115856
11 *285:16 0.00123605
12 *285:14 0.000565956
13 *458:B1 *290:92 1.40978e-05
14 *285:26 *524:RESET_B 5.69911e-05
15 *285:26 *525:CLK 0
16 *285:26 *542:CLK 4.57017e-05
17 *285:26 *298:64 0
18 *285:26 *299:12 0
19 *318:C *285:14 1.1573e-05
20 *409:S *285:26 0
21 *410:A *410:B 5.85747e-06
22 *410:A *285:26 3.35199e-05
23 *411:A *402:A 0.000107496
24 *412:B *410:B 3.49365e-05
25 *413:B2 *402:A 8.61737e-06
26 *413:B2 *410:B 5.69888e-06
27 *413:B2 *285:26 0.000138938
28 *415:B *402:A 8.17829e-06
29 *415:B *410:B 3.77568e-05
30 *415:B *285:26 5.68317e-05
31 *418:A1 *402:A 7.74958e-05
32 *418:A1 *285:14 0.000877172
33 *418:A2 *402:A 0.000302025
34 *460:B1 *458:B1 8.68133e-05
35 *460:B1 *285:42 5.22654e-06
36 *461:C *285:32 0.000295302
37 *461:C *285:42 0.000143354
38 *464:B *285:32 0.000148767
39 *464:B *285:42 6.46815e-05
40 *466:A *458:B1 0.000103123
41 *469:B1 *458:B1 2.22198e-05
42 *469:C1 *458:B1 4.3116e-06
43 *471:B *285:32 3.20407e-05
44 *471:C *285:32 2.44579e-05
45 *473:B1 *285:42 0
46 *473:C1 *458:B1 7.14746e-05
47 *543:D *285:26 0
48 *147:71 *458:B1 2.15656e-05
49 *170:12 *458:B1 2.95757e-05
50 *171:31 *458:B1 2.71542e-05
51 *174:10 *285:42 8.25705e-05
52 *228:70 *285:14 0.000760313
53 *229:50 *410:B 8.73084e-06
54 *229:58 *285:14 7.86825e-06
55 *232:10 *285:26 0.000185159
56 *232:14 *285:26 1.06049e-05
57 *232:60 *402:A 0.000154145
58 *233:16 *402:A 0.00017686
59 *258:27 *458:B1 0
60 *258:27 *285:42 0
61 *260:12 *285:26 4.5539e-05
62 *260:12 *285:32 2.68066e-05
63 *260:14 *285:32 2.41266e-05
*RES
1 *644:X *285:14 22.445 
2 *285:14 *285:16 0.732798 
3 *285:16 *285:26 30.2107 
4 *285:26 *285:32 11.9047 
5 *285:32 *285:42 15.1437 
6 *285:42 *458:B1 34.2014 
7 *285:42 *308:A 13.7491 
8 *285:32 *464:A 9.24915 
9 *285:26 *461:A 14.4819 
10 *285:16 *402:A 23.2873 
11 *285:14 *410:B 15.4955 
*END

*D_NET *286 0.00926744
*CONN
*I *309:A2 I *D sky130_fd_sc_hd__a32o_1
*I *423:A1 I *D sky130_fd_sc_hd__a22o_2
*I *425:B2 I *D sky130_fd_sc_hd__a22o_2
*I *428:B_N I *D sky130_fd_sc_hd__nor2b_1
*I *646:A I *D sky130_fd_sc_hd__buf_4
*I *427:B2 I *D sky130_fd_sc_hd__a22o_2
*I *422:B I *D sky130_fd_sc_hd__nor2_4
*I *314:A1 I *D sky130_fd_sc_hd__a22o_1
*I *645:X O *D sky130_fd_sc_hd__buf_4
*CAP
1 *309:A2 0.000132052
2 *423:A1 2.07309e-05
3 *425:B2 0.000506491
4 *428:B_N 0
5 *646:A 0.000120122
6 *427:B2 0.000217956
7 *422:B 0.000138412
8 *314:A1 0
9 *645:X 0.000415758
10 *286:81 0.00107861
11 *286:63 0.000164594
12 *286:44 0.000733772
13 *286:27 0.000694743
14 *286:25 0.000783876
15 *286:21 0.000554269
16 *286:10 0.000690473
17 *422:B *541:CLK 4.33979e-05
18 *422:B *548:CLK 5.12223e-05
19 *427:B2 *296:84 0.000127179
20 *646:A *530:RESET_B 4.95492e-05
21 *646:A *287:10 0.00011818
22 *286:10 *548:CLK 0
23 *286:10 *290:22 0
24 *286:21 *541:CLK 0
25 *286:21 *548:CLK 0
26 *286:21 *290:20 0
27 *286:27 *541:CLK 0.000290644
28 *286:81 *528:RESET_B 0
29 *286:81 *541:CLK 0.000214071
30 *286:81 *297:33 0
31 *312:B *286:21 0
32 *314:A2 *286:10 1.07248e-05
33 *314:A2 *286:21 0.000143032
34 *314:B1 *422:B 1.91246e-05
35 *314:B1 *286:10 2.02035e-05
36 *314:B2 *422:B 1.47978e-05
37 *314:B2 *286:10 4.54832e-05
38 *422:A *646:A 2.65831e-05
39 *422:A *286:44 5.37221e-06
40 *423:A2 *286:81 9.84787e-05
41 *423:B1 *425:B2 4.66492e-05
42 *424:S *286:81 0.000212948
43 *425:A2 *425:B2 0.000234498
44 *428:A *422:B 0.000120695
45 *428:A *286:27 0.000114955
46 *428:A *286:44 0.000254911
47 *428:A *286:63 1.64789e-05
48 *457:A_N *286:10 4.63588e-05
49 *527:D *286:81 1.27269e-05
50 *528:D *425:B2 7.89103e-06
51 *529:D *427:B2 3.31733e-05
52 *541:D *309:A2 1.92926e-05
53 *541:D *286:25 9.18559e-06
54 *80:25 *286:21 0
55 *147:15 *422:B 0
56 *147:15 *427:B2 0
57 *147:69 *422:B 5.04829e-06
58 *147:69 *286:44 1.41976e-05
59 *245:16 *425:B2 3.30865e-05
60 *245:16 *286:81 4.30017e-06
61 *263:20 *286:21 0
62 *263:39 *286:27 0.000179286
63 *263:39 *286:81 4.58723e-05
64 *263:50 *286:81 0.00032598
*RES
1 *645:X *286:10 24.0662 
2 *286:10 *314:A1 13.7491 
3 *286:10 *286:21 10.8998 
4 *286:21 *286:25 7.44181 
5 *286:25 *286:27 5.15401 
6 *286:27 *422:B 17.4379 
7 *286:27 *286:44 12.4332 
8 *286:44 *427:B2 23.6311 
9 *286:44 *286:63 1.39857 
10 *286:63 *646:A 13.3002 
11 *286:63 *428:B_N 9.24915 
12 *286:25 *286:81 20.4856 
13 *286:81 *425:B2 17.6164 
14 *286:81 *423:A1 9.82786 
15 *286:21 *309:A2 12.191 
*END

*D_NET *287 0.0101904
*CONN
*I *363:A1 I *D sky130_fd_sc_hd__a211o_2
*I *431:S I *D sky130_fd_sc_hd__mux2i_1
*I *453:A_N I *D sky130_fd_sc_hd__nand3b_1
*I *449:S I *D sky130_fd_sc_hd__mux2i_1
*I *446:S I *D sky130_fd_sc_hd__mux2i_1
*I *443:S I *D sky130_fd_sc_hd__mux2i_1
*I *437:S I *D sky130_fd_sc_hd__mux2i_1
*I *440:S I *D sky130_fd_sc_hd__mux2i_1
*I *434:S I *D sky130_fd_sc_hd__mux2i_1
*I *646:X O *D sky130_fd_sc_hd__buf_4
*CAP
1 *363:A1 0
2 *431:S 0
3 *453:A_N 3.11801e-05
4 *449:S 0
5 *446:S 1.63938e-05
6 *443:S 0.000112531
7 *437:S 0
8 *440:S 0.000423766
9 *434:S 0
10 *646:X 0.000279946
11 *287:85 0.000733905
12 *287:81 0.00103612
13 *287:73 0.000687887
14 *287:51 0.000897465
15 *287:41 0.000766632
16 *287:30 0.000371926
17 *287:16 0.000621879
18 *287:10 0.000597266
19 *440:S *292:63 0.000149643
20 *443:S *295:45 9.89147e-05
21 *287:10 *530:RESET_B 0.00011818
22 *287:10 *546:SET_B 2.01727e-05
23 *287:10 *296:70 0.000124962
24 *287:10 *296:84 4.3116e-06
25 *287:16 *546:SET_B 5.76259e-05
26 *287:30 *538:CLK 0.000211833
27 *287:51 *531:RESET_B 3.48926e-05
28 *287:51 *292:55 6.08467e-05
29 *287:81 *654:A 6.13726e-05
30 *287:81 *293:79 0
31 *287:85 *292:16 0.000129801
32 *363:A2 *287:10 7.06708e-05
33 *363:A2 *287:16 3.00174e-06
34 *434:A0 *287:51 0.000142421
35 *434:A1 *287:51 5.36913e-05
36 *434:A1 *287:73 0.000114659
37 *435:A *287:30 2.65667e-05
38 *436:B1 *287:30 0.000219249
39 *436:B1 *287:41 0.000255625
40 *437:A0 *440:S 9.75356e-05
41 *437:A1 *287:51 0
42 *439:A2 *440:S 0
43 *443:A1 *443:S 0
44 *450:A *287:85 2.93004e-05
45 *450:B *287:85 1.08178e-06
46 *451:A1 *287:85 6.28701e-05
47 *451:A2 *287:85 0.000162958
48 *451:B1 *287:85 2.73051e-05
49 *453:B *287:51 1.86171e-05
50 *453:B *287:73 7.8453e-05
51 *546:D *287:16 0
52 *546:D *287:30 0.000127194
53 *641:A *287:16 0.0002817
54 *646:A *287:10 0.00011818
55 *247:8 *287:10 0.000148786
56 *284:38 *287:30 3.20016e-05
57 *284:44 *287:30 9.17814e-05
58 *284:44 *287:41 0.0003071
59 *284:102 *443:S 2.16355e-05
60 *284:102 *446:S 1.03434e-05
61 *284:102 *287:85 3.82228e-05
*RES
1 *646:X *287:10 24.3337 
2 *287:10 *287:16 13.7078 
3 *287:16 *287:30 19.4028 
4 *287:30 *434:S 9.24915 
5 *287:30 *287:41 8.57513 
6 *287:41 *287:51 14.0348 
7 *287:51 *440:S 28.7055 
8 *287:51 *437:S 9.24915 
9 *287:41 *287:73 11.315 
10 *287:73 *287:81 19.0411 
11 *287:81 *287:85 10.1758 
12 *287:85 *443:S 20.8045 
13 *287:85 *446:S 9.82786 
14 *287:81 *449:S 9.24915 
15 *287:73 *453:A_N 9.97254 
16 *287:16 *431:S 9.24915 
17 *287:10 *363:A1 13.7491 
*END

*D_NET *288 0.00834051
*CONN
*I *323:A I *D sky130_fd_sc_hd__nand3_1
*I *398:D I *D sky130_fd_sc_hd__nor4_4
*I *331:B2 I *D sky130_fd_sc_hd__a22o_1
*I *367:A1 I *D sky130_fd_sc_hd__a22o_1
*I *369:B2 I *D sky130_fd_sc_hd__a22o_1
*I *371:B2 I *D sky130_fd_sc_hd__a22o_1
*I *372:A I *D sky130_fd_sc_hd__nand2_1
*I *366:B I *D sky130_fd_sc_hd__nor2_1
*I *647:X O *D sky130_fd_sc_hd__buf_4
*CAP
1 *323:A 0.000212958
2 *398:D 0.000181372
3 *331:B2 0.000280553
4 *367:A1 0.00051841
5 *369:B2 0.000113093
6 *371:B2 0.000150536
7 *372:A 1.22661e-05
8 *366:B 0
9 *647:X 0
10 *288:59 0.000874465
11 *288:46 0.000590661
12 *288:31 0.000403304
13 *288:16 0.000224588
14 *288:12 0.000797378
15 *288:6 0.000978368
16 *288:4 0.000523843
17 *367:A1 *365:S 3.99086e-06
18 *372:A *372:B 6.55651e-05
19 *324:B *398:D 0
20 *331:A1 *331:B2 0.000112367
21 *331:A2 *331:B2 0.000107643
22 *331:A2 *288:12 0.000380432
23 *331:B1 *331:B2 1.49972e-05
24 *331:B1 *372:A 2.58757e-05
25 *366:A *288:16 0.000110306
26 *366:A *288:31 6.36477e-05
27 *367:A2 *367:A1 0
28 *367:B1 *367:A1 9.99478e-05
29 *369:A2 *367:A1 8.00571e-05
30 *369:B1 *367:A1 4.56831e-05
31 *369:B1 *369:B2 0.000315389
32 *370:A0 *371:B2 1.43832e-05
33 *395:A *398:D 1.09738e-05
34 *395:A *288:6 5.08751e-05
35 *395:A *288:12 0.000113968
36 *395:B_N *288:6 6.50586e-05
37 *497:D *369:B2 0.000283814
38 *497:D *288:59 0
39 *520:D *331:B2 0.000114659
40 *520:D *288:12 3.27269e-05
41 *520:D *288:16 6.3657e-05
42 *520:D *288:31 9.66779e-05
43 *115:25 *288:59 0
44 *118:6 *331:B2 3.00835e-06
45 *124:10 *288:6 0.000161493
46 *213:21 *288:59 0
47 *227:12 *323:A 4.15143e-05
*RES
1 *647:X *288:4 9.24915 
2 *288:4 *288:6 7.93324 
3 *288:6 *288:12 17.7238 
4 *288:12 *288:16 5.778 
5 *288:16 *366:B 9.24915 
6 *288:16 *288:31 9.20493 
7 *288:31 *372:A 14.4725 
8 *288:31 *288:46 4.81204 
9 *288:46 *371:B2 17.2456 
10 *288:46 *288:59 10.0693 
11 *288:59 *369:B2 15.0363 
12 *288:59 *367:A1 18.0264 
13 *288:12 *331:B2 19.9268 
14 *288:6 *398:D 22.5727 
15 *288:4 *323:A 23.2989 
*END

*D_NET *289 0.00536067
*CONN
*I *323:B I *D sky130_fd_sc_hd__nand3_1
*I *365:S I *D sky130_fd_sc_hd__mux2_2
*I *368:S I *D sky130_fd_sc_hd__mux2_2
*I *330:A I *D sky130_fd_sc_hd__nand2_1
*I *370:S I *D sky130_fd_sc_hd__mux2_2
*I *372:B I *D sky130_fd_sc_hd__nand2_1
*I *648:X O *D sky130_fd_sc_hd__buf_4
*CAP
1 *323:B 0.000154686
2 *365:S 0.000308579
3 *368:S 8.9154e-05
4 *330:A 3.15113e-05
5 *370:S 0
6 *372:B 0.000241355
7 *648:X 2.19274e-05
8 *289:53 0.000702106
9 *289:38 0.000492212
10 *289:14 0.000257699
11 *289:10 0.000394484
12 *289:6 0.000398425
13 *323:B *518:RESET_B 4.09471e-05
14 *330:A *520:CLK 8.23435e-05
15 *289:6 *518:RESET_B 3.14978e-05
16 *289:53 *496:CLK 0.000301483
17 *289:53 *520:CLK 0.000138334
18 *289:53 *303:66 0.000113714
19 *323:C *323:B 0.000164829
20 *323:C *289:10 4.87198e-05
21 *324:B *323:B 1.19856e-05
22 *330:B *330:A 8.36586e-06
23 *331:B1 *372:B 0.00011851
24 *331:B1 *289:14 2.58616e-05
25 *331:B1 *289:38 0.000109427
26 *367:A1 *365:S 3.99086e-06
27 *367:A2 *365:S 0.000235336
28 *367:B1 *368:S 5.73392e-05
29 *367:B2 *289:53 9.92222e-05
30 *368:A1 *289:53 0
31 *369:A2 *368:S 6.92705e-05
32 *370:A1 *372:B 6.94431e-05
33 *370:A1 *289:14 1.88422e-05
34 *370:A1 *289:38 8.23171e-06
35 *371:B1 *289:38 8.36586e-06
36 *372:A *372:B 6.55651e-05
37 *115:10 *330:A 2.67514e-05
38 *115:10 *289:10 0.000237772
39 *115:10 *289:38 7.40248e-05
40 *115:10 *289:53 5.70826e-05
41 *115:25 *289:53 4.12789e-05
*RES
1 *648:X *289:6 9.97254 
2 *289:6 *289:10 10.8998 
3 *289:10 *289:14 5.2234 
4 *289:14 *372:B 16.1214 
5 *289:14 *370:S 9.24915 
6 *289:10 *289:38 12.2493 
7 *289:38 *330:A 15.1659 
8 *289:38 *289:53 15.2158 
9 *289:53 *368:S 11.6364 
10 *289:53 *365:S 16.8207 
11 *289:6 *323:B 13.8789 
*END

*D_NET *290 0.0102061
*CONN
*I *545:CLK I *D sky130_fd_sc_hd__dfrtp_1
*I *544:CLK I *D sky130_fd_sc_hd__dfrtp_1
*I *665:A I *D sky130_fd_sc_hd__bufinv_16
*I *539:CLK I *D sky130_fd_sc_hd__dfrtp_1
*I *541:CLK I *D sky130_fd_sc_hd__dfrtp_1
*I *548:CLK I *D sky130_fd_sc_hd__dfrtp_1
*I *540:CLK I *D sky130_fd_sc_hd__dfrtp_1
*I *547:CLK I *D sky130_fd_sc_hd__dfrtp_1
*I *649:X O *D sky130_fd_sc_hd__clkbuf_8
*CAP
1 *545:CLK 0.000199776
2 *544:CLK 0.000109091
3 *665:A 0
4 *539:CLK 0
5 *541:CLK 0.000305656
6 *548:CLK 0.000279251
7 *540:CLK 0.000107137
8 *547:CLK 0.000347464
9 *649:X 5.7656e-05
10 *290:92 0.000818498
11 *290:56 0.000725914
12 *290:52 0.000141007
13 *290:22 0.000948616
14 *290:20 0.000978046
15 *290:14 0.000560803
16 *290:10 0.000644059
17 *545:CLK *298:17 0
18 *547:CLK *296:29 5.0309e-05
19 *290:10 *541:RESET_B 3.4475e-05
20 *290:22 *548:RESET_B 0.0001471
21 *290:22 *296:29 2.74295e-05
22 *311:A1 *540:CLK 1.41976e-05
23 *311:A2 *547:CLK 2.95757e-05
24 *311:A2 *290:22 0.000149643
25 *312:B *541:CLK 0
26 *312:B *290:20 1.41976e-05
27 *314:A2 *290:20 2.61857e-05
28 *314:A2 *290:22 9.34396e-06
29 *314:B1 *548:CLK 5.23991e-05
30 *314:B2 *548:CLK 9.905e-05
31 *422:B *541:CLK 4.33979e-05
32 *422:B *548:CLK 5.12223e-05
33 *458:B1 *290:92 1.40978e-05
34 *460:A2 *290:92 0.000472818
35 *466:A *290:92 6.51243e-05
36 *466:B *290:92 0.000163428
37 *470:A1 *544:CLK 0
38 *470:A2 *544:CLK 5.92192e-05
39 *473:A1 *290:92 0.000271044
40 *474:A1 *545:CLK 0
41 *475:S *547:CLK 3.78605e-05
42 *539:D *290:56 2.65667e-05
43 *540:D *540:CLK 1.84293e-05
44 *541:D *541:CLK 3.17474e-05
45 *545:D *545:CLK 2.85997e-05
46 *548:D *548:CLK 2.58616e-05
47 *22:10 *541:CLK 0
48 *80:25 *290:20 0
49 *80:25 *290:22 0
50 *80:33 *290:22 0
51 *147:69 *290:56 0.000184734
52 *173:23 *544:CLK 0.000175674
53 *173:23 *545:CLK 0.000151326
54 *173:40 *545:CLK 0.000163492
55 *178:8 *290:92 0.000311927
56 *235:8 *547:CLK 6.15488e-05
57 *255:62 *547:CLK 1.2601e-05
58 *255:62 *290:22 2.75292e-05
59 *258:27 *290:10 0.000122098
60 *263:20 *290:20 0.000304147
61 *286:10 *548:CLK 0
62 *286:10 *290:22 0
63 *286:21 *541:CLK 0
64 *286:21 *548:CLK 0
65 *286:21 *290:20 0
66 *286:27 *541:CLK 0.000290644
67 *286:81 *541:CLK 0.000214071
*RES
1 *649:X *290:10 20.4964 
2 *290:10 *290:14 1.85672 
3 *290:14 *290:20 16.4809 
4 *290:20 *290:22 13.4591 
5 *290:22 *547:CLK 22.5239 
6 *290:22 *540:CLK 16.1364 
7 *290:20 *290:52 4.5 
8 *290:52 *290:56 9.10562 
9 *290:56 *548:CLK 20.902 
10 *290:56 *541:CLK 23.4709 
11 *290:52 *539:CLK 9.24915 
12 *290:14 *665:A 9.24915 
13 *290:10 *290:92 20.1977 
14 *290:92 *544:CLK 17.6574 
15 *290:92 *545:CLK 19.7337 
*END

*D_NET *291 0.00903289
*CONN
*I *491:CLK I *D sky130_fd_sc_hd__dfrtp_1
*I *664:A I *D sky130_fd_sc_hd__bufinv_16
*I *529:CLK I *D sky130_fd_sc_hd__dfrtp_1
*I *489:CLK I *D sky130_fd_sc_hd__dfrtp_1
*I *537:CLK I *D sky130_fd_sc_hd__dfrtp_1
*I *488:CLK I *D sky130_fd_sc_hd__dfrtp_1
*I *487:CLK I *D sky130_fd_sc_hd__dfrtp_1
*I *536:CLK I *D sky130_fd_sc_hd__dfrtp_1
*I *650:X O *D sky130_fd_sc_hd__clkbuf_8
*CAP
1 *491:CLK 0.00025352
2 *664:A 0.000122051
3 *529:CLK 0.000256845
4 *489:CLK 0
5 *537:CLK 0.000156148
6 *488:CLK 0.000593568
7 *487:CLK 0
8 *536:CLK 0.000256928
9 *650:X 3.81936e-05
10 *291:43 0.000722442
11 *291:26 0.000625905
12 *291:22 0.000565611
13 *291:20 0.000537213
14 *291:12 0.000716859
15 *291:10 0.000294749
16 *291:8 0.000372251
17 *488:CLK *488:RESET_B 2.52414e-06
18 *536:CLK *535:RESET_B 0.000130897
19 *537:CLK *487:RESET_B 5.00938e-05
20 *537:CLK *654:A 0.000148129
21 *537:CLK *293:79 0
22 *291:20 *296:110 7.0656e-05
23 *291:22 *296:110 5.57134e-05
24 *449:A0 *536:CLK 0
25 *449:A0 *291:26 8.78581e-05
26 *452:A *536:CLK 0
27 *452:A *291:22 0.000442831
28 *452:A *291:26 0.000213725
29 *487:D *488:CLK 7.60183e-05
30 *488:D *488:CLK 0.0002006
31 *489:D *664:A 9.0845e-05
32 *536:D *536:CLK 2.65667e-05
33 *191:31 *488:CLK 0
34 *193:14 *491:CLK 0.000560065
35 *193:14 *291:10 0.000249953
36 *193:14 *291:12 0.000169684
37 *193:14 *291:20 0.000144659
38 *195:12 *491:CLK 2.78496e-05
39 *253:12 *536:CLK 2.82089e-05
40 *253:12 *537:CLK 3.25584e-05
41 *254:8 *537:CLK 7.48797e-05
42 *283:10 *491:CLK 0.000155484
43 *283:16 *491:CLK 6.5713e-05
44 *283:16 *664:A 0.000310724
45 *283:16 *291:10 0.000104372
*RES
1 *650:X *291:8 14.4725 
2 *291:8 *291:10 4.32351 
3 *291:10 *291:12 3.07775 
4 *291:12 *291:20 12.2022 
5 *291:20 *291:22 6.26943 
6 *291:22 *291:26 11.324 
7 *291:26 *536:CLK 20.5109 
8 *291:26 *291:43 3.07775 
9 *291:43 *487:CLK 13.7491 
10 *291:43 *488:CLK 29.6066 
11 *291:22 *537:CLK 23.5748 
12 *291:20 *489:CLK 9.24915 
13 *291:12 *529:CLK 19.464 
14 *291:10 *664:A 18.3548 
15 *291:8 *491:CLK 24.3337 
*END

*D_NET *292 0.010156
*CONN
*I *530:CLK I *D sky130_fd_sc_hd__dfrtp_1
*I *663:A I *D sky130_fd_sc_hd__clkinv_2
*I *532:CLK I *D sky130_fd_sc_hd__dfrtp_1
*I *531:CLK I *D sky130_fd_sc_hd__dfrtp_1
*I *546:CLK I *D sky130_fd_sc_hd__dfstp_2
*I *538:CLK I *D sky130_fd_sc_hd__dfstp_2
*I *533:CLK I *D sky130_fd_sc_hd__dfrtp_1
*I *535:CLK I *D sky130_fd_sc_hd__dfrtp_1
*I *534:CLK I *D sky130_fd_sc_hd__dfrtp_1
*I *651:X O *D sky130_fd_sc_hd__clkbuf_8
*CAP
1 *530:CLK 7.38313e-05
2 *663:A 0
3 *532:CLK 0
4 *531:CLK 0
5 *546:CLK 0
6 *538:CLK 0.000560926
7 *533:CLK 0
8 *535:CLK 0.000577727
9 *534:CLK 0
10 *651:X 0
11 *292:63 0.00120918
12 *292:55 0.000816676
13 *292:28 0.000958107
14 *292:22 0.000818567
15 *292:20 0.00086099
16 *292:16 0.000825101
17 *292:8 0.00087612
18 *292:4 0.00037923
19 *292:16 *654:A 0
20 *292:63 *531:RESET_B 0
21 *321:A *292:63 0.000217937
22 *363:A2 *538:CLK 6.92705e-05
23 *363:B1 *538:CLK 4.07355e-05
24 *363:C1 *538:CLK 6.50727e-05
25 *433:A2 *538:CLK 1.09406e-05
26 *434:A0 *292:63 0
27 *435:A *538:CLK 0.000148159
28 *437:A0 *292:55 0.000116746
29 *437:A0 *292:63 2.3939e-05
30 *437:A1 *292:22 0.000165521
31 *437:A1 *292:55 0.00020146
32 *439:A2 *292:20 0
33 *439:A2 *292:55 6.50586e-05
34 *440:S *292:63 0.000149643
35 *441:A *292:20 3.86835e-05
36 *442:A2 *292:20 0
37 *449:A0 *292:16 4.10846e-05
38 *451:A2 *292:16 1.41976e-05
39 *532:D *292:20 5.32678e-05
40 *533:D *292:22 0.000172255
41 *534:D *292:28 0
42 *546:D *538:CLK 0.000171473
43 *626:A *535:CLK 0
44 *255:10 *538:CLK 5.04829e-06
45 *284:38 *538:CLK 2.65831e-05
46 *284:92 *292:16 0
47 *284:96 *292:16 0
48 *287:30 *538:CLK 0.000211833
49 *287:51 *292:55 6.08467e-05
50 *287:85 *292:16 0.000129801
*RES
1 *651:X *292:4 9.24915 
2 *292:4 *292:8 7.40275 
3 *292:8 *292:16 18.5784 
4 *292:16 *292:20 10.8998 
5 *292:20 *292:22 12.3701 
6 *292:22 *292:28 13.7078 
7 *292:28 *534:CLK 13.7491 
8 *292:28 *535:CLK 26.7929 
9 *292:22 *533:CLK 9.24915 
10 *292:20 *292:55 6.46234 
11 *292:55 *292:63 25.4177 
12 *292:63 *538:CLK 35.7704 
13 *292:63 *546:CLK 9.24915 
14 *292:55 *531:CLK 9.24915 
15 *292:16 *532:CLK 13.7491 
16 *292:8 *663:A 9.24915 
17 *292:4 *530:CLK 11.0817 
*END

*D_NET *293 0.0217898
*CONN
*I *658:A I *D sky130_fd_sc_hd__clkbuf_8
*I *649:A I *D sky130_fd_sc_hd__clkbuf_8
*I *660:A I *D sky130_fd_sc_hd__clkbuf_8
*I *659:A I *D sky130_fd_sc_hd__clkbuf_8
*I *650:A I *D sky130_fd_sc_hd__clkbuf_8
*I *651:A I *D sky130_fd_sc_hd__clkbuf_8
*I *662:A I *D sky130_fd_sc_hd__clkbuf_8
*I *661:A I *D sky130_fd_sc_hd__clkbuf_8
*I *652:X O *D sky130_fd_sc_hd__clkbuf_8
*CAP
1 *658:A 0
2 *649:A 1.63158e-05
3 *660:A 0
4 *659:A 8.15544e-05
5 *650:A 0
6 *651:A 0
7 *662:A 9.07719e-05
8 *661:A 0
9 *652:X 0.000115954
10 *293:187 0.000374023
11 *293:169 0.000169075
12 *293:151 0.00145711
13 *293:123 0.000119587
14 *293:119 0.00233641
15 *293:106 0.000950538
16 *293:97 0.000165043
17 *293:91 0.000469184
18 *293:79 0.000366308
19 *293:77 0.00315308
20 *293:67 0.00311814
21 *293:63 0.00130934
22 *293:47 0.000684331
23 *293:31 0.00179765
24 *293:19 0.0020602
25 *293:6 0.000628772
26 *662:A *303:8 8.6773e-05
27 *293:47 *518:CLK 0
28 *293:47 *519:SET_B 3.30446e-05
29 *293:47 *303:8 6.31081e-05
30 *293:67 *528:RESET_B 0
31 *293:67 *666:A 0
32 *293:67 *297:33 0
33 *293:67 *299:20 0
34 *293:79 *537:RESET_B 0
35 *293:151 *500:RESET_B 2.09571e-05
36 *312:B *293:169 0
37 *314:B1 *293:77 0
38 *331:A1 *293:47 0
39 *333:B1 *293:47 4.37419e-05
40 *335:C *659:A 2.57847e-05
41 *337:A *293:119 7.46068e-05
42 *338:B *293:47 1.09013e-05
43 *342:B *293:91 0
44 *343:C *293:119 8.47675e-05
45 *350:C *293:119 4.75329e-05
46 *355:B *293:119 0
47 *355:C *659:A 8.83451e-06
48 *355:C *293:119 1.45944e-05
49 *355:C *293:123 6.61623e-05
50 *355:C *293:151 3.11933e-06
51 *356:A1 *293:119 3.92275e-05
52 *356:A1 *293:123 4.58003e-05
53 *381:A2 *293:47 0.000155928
54 *384:A1 *293:151 0
55 *385:A1 *293:151 0.00015744
56 *409:A0 *293:67 5.66185e-05
57 *409:A1 *293:67 0.000520271
58 *483:A *293:119 2.85139e-05
59 *489:D *293:79 7.37904e-07
60 *489:D *293:91 0
61 *507:D *293:151 0.000112193
62 *518:D *293:47 0.000137061
63 *519:D *293:47 0
64 *523:D *293:187 1.16659e-05
65 *524:D *293:67 8.00203e-06
66 *537:CLK *293:79 0
67 *9:38 *293:119 0
68 *22:10 *293:67 0
69 *22:10 *293:169 0
70 *31:10 *293:106 1.04109e-06
71 *31:10 *293:119 9.38506e-05
72 *31:21 *293:119 0.000136502
73 *80:10 *649:A 2.78509e-06
74 *85:68 *293:31 4.75721e-06
75 *85:68 *293:47 2.2506e-05
76 *94:12 *293:47 3.21615e-05
77 *104:29 *293:119 0
78 *106:10 *293:119 9.34396e-06
79 *106:12 *293:119 8.62321e-06
80 *192:10 *293:119 8.07794e-05
81 *197:16 *293:119 0
82 *197:35 *293:119 3.35162e-05
83 *200:18 *293:151 2.85842e-05
84 *215:10 *293:151 0
85 *226:8 *293:47 0
86 *231:21 *293:187 1.32315e-05
87 *258:12 *293:67 0
88 *258:12 *293:169 1.29737e-06
89 *283:16 *293:91 0
90 *287:81 *293:79 0
*RES
1 *652:X *293:6 11.5218 
2 *293:6 *293:19 13.8042 
3 *293:19 *293:31 7.26822 
4 *293:31 *661:A 13.7491 
5 *293:31 *293:47 21.9282 
6 *293:47 *662:A 11.5761 
7 *293:19 *293:63 0.989384 
8 *293:63 *293:67 19.9544 
9 *293:67 *293:77 12.935 
10 *293:77 *293:79 7.85315 
11 *293:79 *651:A 13.7491 
12 *293:77 *293:91 9.92941 
13 *293:91 *293:97 5.778 
14 *293:97 *650:A 9.24915 
15 *293:97 *293:106 2.556 
16 *293:106 *293:119 27.3342 
17 *293:119 *293:123 6.20601 
18 *293:123 *659:A 11.2083 
19 *293:119 *293:151 18.243 
20 *293:151 *660:A 13.7491 
21 *293:67 *293:169 3.42583 
22 *293:169 *649:A 14.1952 
23 *293:63 *293:187 4.33271 
24 *293:187 *658:A 13.7491 
*END

*D_NET *294 0.0115834
*CONN
*I *387:S I *D sky130_fd_sc_hd__mux2_2
*I *388:S I *D sky130_fd_sc_hd__mux2_2
*I *386:S I *D sky130_fd_sc_hd__mux2_2
*I *391:S I *D sky130_fd_sc_hd__mux2_2
*I *389:S I *D sky130_fd_sc_hd__mux2_2
*I *384:S I *D sky130_fd_sc_hd__mux2_2
*I *385:S I *D sky130_fd_sc_hd__mux2_2
*I *390:S I *D sky130_fd_sc_hd__mux2_2
*I *653:X O *D sky130_fd_sc_hd__buf_12
*CAP
1 *387:S 0.000336648
2 *388:S 0.000129505
3 *386:S 0.000597306
4 *391:S 0.000236209
5 *389:S 4.49196e-05
6 *384:S 2.12792e-05
7 *385:S 0.000416831
8 *390:S 0
9 *653:X 0.00024179
10 *294:78 0.000904896
11 *294:76 0.000605323
12 *294:29 0.000949967
13 *294:25 0.00126836
14 *294:12 0.000620995
15 *294:10 0.000477999
16 *386:S *499:CLK 0.000439194
17 *388:S *301:14 2.08274e-05
18 *388:S *301:18 8.8047e-05
19 *389:S *514:CLK 4.1892e-05
20 *391:S *297:130 0.000109785
21 *391:S *297:137 0.000171677
22 *391:S *303:29 1.43832e-05
23 *294:10 *297:120 0.000179271
24 *294:10 *297:130 0.000273697
25 *294:25 *514:CLK 8.70662e-06
26 *376:A0 *385:S 8.35277e-05
27 *376:A0 *294:29 8.80329e-05
28 *376:A0 *294:76 0.000497364
29 *379:A0 *294:25 0.000355078
30 *384:A0 *294:29 4.70016e-05
31 *384:A1 *385:S 0.000258216
32 *385:A1 *386:S 0
33 *387:A0 *387:S 0.000212538
34 *387:A1 *387:S 0
35 *388:A0 *388:S 0.000113713
36 *388:A1 *388:S 6.27782e-05
37 *390:A0 *391:S 9.63354e-05
38 *390:A0 *294:10 3.20407e-05
39 *390:A0 *294:25 1.65872e-05
40 *390:A1 *294:25 0.000552827
41 *499:D *386:S 1.94615e-05
42 *508:D *387:S 0
43 *639:A *294:10 0
44 *118:60 *294:76 0.000364137
45 *220:21 *389:S 8.81078e-05
46 *220:21 *294:25 0.000384796
47 *221:23 *294:25 0.000111352
*RES
1 *653:X *294:10 22.1181 
2 *294:10 *294:12 4.5 
3 *294:12 *390:S 9.24915 
4 *294:12 *294:25 19.827 
5 *294:25 *294:29 13.5424 
6 *294:29 *385:S 14.9881 
7 *294:29 *384:S 9.82786 
8 *294:25 *389:S 15.5811 
9 *294:10 *391:S 20.6152 
10 *385:S *294:76 19.464 
11 *294:76 *294:78 3.90826 
12 *294:78 *386:S 30.15 
13 *294:78 *388:S 17.8002 
14 *294:76 *387:S 21.9871 
*END

*D_NET *295 0.00647666
*CONN
*I *531:RESET_B I *D sky130_fd_sc_hd__dfrtp_1
*I *536:RESET_B I *D sky130_fd_sc_hd__dfrtp_1
*I *535:RESET_B I *D sky130_fd_sc_hd__dfrtp_1
*I *532:RESET_B I *D sky130_fd_sc_hd__dfrtp_1
*I *534:RESET_B I *D sky130_fd_sc_hd__dfrtp_1
*I *533:RESET_B I *D sky130_fd_sc_hd__dfrtp_1
*I *654:X O *D sky130_fd_sc_hd__buf_4
*CAP
1 *531:RESET_B 0.000384057
2 *536:RESET_B 0.000207451
3 *535:RESET_B 0.000223008
4 *532:RESET_B 0.00111243
5 *534:RESET_B 0.000135872
6 *533:RESET_B 0.000121173
7 *654:X 0.00021198
8 *295:45 0.000706927
9 *295:12 0.000302767
10 *295:10 0.000894512
11 *295:8 0.00060886
12 *295:8 *654:A 0.000117376
13 *434:A0 *531:RESET_B 0
14 *439:A2 *531:RESET_B 0
15 *440:A1 *533:RESET_B 4.44196e-05
16 *442:A2 *533:RESET_B 0.000112193
17 *442:B1 *534:RESET_B 2.65667e-05
18 *443:S *295:45 9.89147e-05
19 *444:A *533:RESET_B 4.64581e-05
20 *444:A *295:10 2.09356e-05
21 *444:A *295:12 3.75063e-05
22 *446:A0 *535:RESET_B 0
23 *446:A0 *295:45 0
24 *449:A0 *295:45 0
25 *451:A1 *536:RESET_B 0
26 *531:D *531:RESET_B 0.000143017
27 *533:D *533:RESET_B 7.50872e-05
28 *536:D *295:45 5.39463e-05
29 *536:CLK *535:RESET_B 0.000130897
30 *252:10 *535:RESET_B 3.18172e-05
31 *252:10 *295:45 0
32 *253:12 *536:RESET_B 2.09869e-05
33 *253:12 *295:45 3.92275e-05
34 *284:68 *533:RESET_B 8.36586e-06
35 *284:68 *295:10 7.88662e-05
36 *284:68 *295:12 9.43419e-05
37 *284:72 *532:RESET_B 1.03403e-05
38 *284:92 *295:10 0.000161318
39 *284:92 *295:45 0.000145098
40 *284:96 *295:45 3.50455e-05
41 *287:51 *531:RESET_B 3.48926e-05
42 *292:63 *531:RESET_B 0
*RES
1 *654:X *295:8 18.9094 
2 *295:8 *295:10 4.32351 
3 *295:10 *295:12 1.832 
4 *295:12 *533:RESET_B 9.23876 
5 *295:12 *534:RESET_B 7.35741 
6 *295:10 *532:RESET_B 15.8694 
7 *295:8 *295:45 8.34168 
8 *295:45 *535:RESET_B 9.45339 
9 *295:45 *536:RESET_B 8.49045 
10 *532:RESET_B *531:RESET_B 18.1178 
*END

*D_NET *296 0.0151161
*CONN
*I *494:RESET_B I *D sky130_fd_sc_hd__dfrtp_1
*I *492:RESET_B I *D sky130_fd_sc_hd__dfrtp_1
*I *488:RESET_B I *D sky130_fd_sc_hd__dfrtp_1
*I *537:RESET_B I *D sky130_fd_sc_hd__dfrtp_1
*I *487:RESET_B I *D sky130_fd_sc_hd__dfrtp_1
*I *654:A I *D sky130_fd_sc_hd__buf_4
*I *529:RESET_B I *D sky130_fd_sc_hd__dfrtp_1
*I *489:RESET_B I *D sky130_fd_sc_hd__dfrtp_1
*I *530:RESET_B I *D sky130_fd_sc_hd__dfrtp_1
*I *546:SET_B I *D sky130_fd_sc_hd__dfstp_2
*I *548:RESET_B I *D sky130_fd_sc_hd__dfrtp_1
*I *538:SET_B I *D sky130_fd_sc_hd__dfstp_2
*I *540:RESET_B I *D sky130_fd_sc_hd__dfrtp_1
*I *547:RESET_B I *D sky130_fd_sc_hd__dfrtp_1
*I *655:X O *D sky130_fd_sc_hd__buf_4
*CAP
1 *494:RESET_B 0.000212831
2 *492:RESET_B 3.0922e-05
3 *488:RESET_B 0.000833376
4 *537:RESET_B 0.000125374
5 *487:RESET_B 0.000644918
6 *654:A 0.000500641
7 *529:RESET_B 0.000194439
8 *489:RESET_B 0.00081922
9 *530:RESET_B 0.000260323
10 *546:SET_B 0.000324988
11 *548:RESET_B 0.00022294
12 *538:SET_B 0.000615725
13 *540:RESET_B 0.000118428
14 *547:RESET_B 0.000555965
15 *655:X 0
16 *296:165 0.000610982
17 *296:110 0.000942045
18 *296:84 0.000884707
19 *296:70 0.000731349
20 *296:58 0.000920772
21 *296:29 0.000684947
22 *296:4 0.000444298
23 tx_busy *546:SET_B 0
24 *311:A2 *296:29 0.00017419
25 *340:B_N *296:165 0
26 *359:B *494:RESET_B 5.18471e-05
27 *363:B1 *296:58 0.000107496
28 *363:C1 *546:SET_B 4.9e-05
29 *363:C1 *296:70 7.26748e-05
30 *422:A *296:70 4.36455e-05
31 *422:A *296:84 3.20069e-06
32 *427:B1 *489:RESET_B 2.41274e-06
33 *427:B1 *529:RESET_B 7.5108e-05
34 *427:B1 *296:84 0.000127179
35 *427:B2 *296:84 0.000127179
36 *449:A1 *654:A 6.69207e-05
37 *452:A *487:RESET_B 5.66868e-06
38 *452:A *654:A 2.69064e-05
39 *452:A *296:110 0.000503678
40 *454:A1 *296:110 0.000505072
41 *475:S *296:29 0
42 *476:C *538:SET_B 2.39511e-05
43 *488:CLK *488:RESET_B 2.52414e-06
44 *492:D *492:RESET_B 7.83848e-06
45 *529:D *529:RESET_B 0.000143864
46 *529:D *296:84 1.87269e-05
47 *537:D *537:RESET_B 1.58065e-05
48 *537:CLK *487:RESET_B 5.00938e-05
49 *537:CLK *654:A 0.000148129
50 *538:D *296:58 4.41915e-05
51 *547:CLK *296:29 5.0309e-05
52 *646:A *530:RESET_B 4.95492e-05
53 *655:A *540:RESET_B 3.58457e-05
54 *31:10 *488:RESET_B 0
55 *80:25 *548:RESET_B 9.16599e-05
56 *83:10 *546:SET_B 1.75625e-05
57 *105:10 *296:165 0
58 *147:15 *296:84 0
59 *191:25 *488:RESET_B 0
60 *191:31 *488:RESET_B 7.65861e-05
61 *192:6 *488:RESET_B 0.000111208
62 *192:10 *488:RESET_B 1.50262e-05
63 *193:14 *489:RESET_B 7.61196e-05
64 *193:14 *296:110 3.49168e-06
65 *235:8 *547:RESET_B 2.67798e-05
66 *254:8 *537:RESET_B 5.58964e-05
67 *255:10 *546:SET_B 3.15845e-05
68 *255:10 *296:58 1.84367e-05
69 *255:23 *296:70 2.44579e-05
70 *255:34 *296:70 0.000100125
71 *257:10 *540:RESET_B 1.21461e-06
72 *257:16 *538:SET_B 0.000448805
73 *287:10 *530:RESET_B 0.00011818
74 *287:10 *546:SET_B 2.01727e-05
75 *287:10 *296:70 0.000124962
76 *287:10 *296:84 4.3116e-06
77 *287:16 *546:SET_B 5.76259e-05
78 *287:81 *654:A 6.13726e-05
79 *290:22 *548:RESET_B 0.0001471
80 *290:22 *296:29 2.74295e-05
81 *291:20 *296:110 7.0656e-05
82 *291:22 *296:110 5.57134e-05
83 *292:16 *654:A 0
84 *293:79 *537:RESET_B 0
85 *295:8 *654:A 0.000117376
*RES
1 *655:X *296:4 9.24915 
2 *296:4 *547:RESET_B 7.29424 
3 *296:4 *540:RESET_B 11.8862 
4 *547:RESET_B *296:29 11.315 
5 *296:29 *538:SET_B 10.685 
6 *296:29 *548:RESET_B 11.6326 
7 *538:SET_B *296:58 10.8779 
8 *296:58 *546:SET_B 12.9239 
9 *296:58 *296:70 8.06078 
10 *296:70 *530:RESET_B 9.76873 
11 *296:70 *296:84 7.23027 
12 *296:84 *489:RESET_B 14.5673 
13 *296:84 *529:RESET_B 9.87776 
14 *489:RESET_B *296:110 15.6765 
15 *296:110 *654:A 27.6613 
16 *296:110 *487:RESET_B 9.23876 
17 *489:RESET_B *537:RESET_B 11.8862 
18 *487:RESET_B *488:RESET_B 20.3362 
19 *488:RESET_B *296:165 13.3913 
20 *296:165 *492:RESET_B 5.139 
21 *296:165 *494:RESET_B 9.62597 
*END

*D_NET *297 0.0253556
*CONN
*I *502:RESET_B I *D sky130_fd_sc_hd__dfrtp_1
*I *501:RESET_B I *D sky130_fd_sc_hd__dfrtp_1
*I *509:RESET_B I *D sky130_fd_sc_hd__dfrtp_1
*I *495:RESET_B I *D sky130_fd_sc_hd__dfrtp_1
*I *510:RESET_B I *D sky130_fd_sc_hd__dfrtp_1
*I *493:RESET_B I *D sky130_fd_sc_hd__dfrtp_1
*I *500:RESET_B I *D sky130_fd_sc_hd__dfrtp_1
*I *508:RESET_B I *D sky130_fd_sc_hd__dfrtp_1
*I *511:RESET_B I *D sky130_fd_sc_hd__dfrtp_1
*I *507:RESET_B I *D sky130_fd_sc_hd__dfrtp_1
*I *499:RESET_B I *D sky130_fd_sc_hd__dfrtp_1
*I *519:SET_B I *D sky130_fd_sc_hd__dfstp_2
*I *503:RESET_B I *D sky130_fd_sc_hd__dfrtp_1
*I *504:RESET_B I *D sky130_fd_sc_hd__dfrtp_1
*I *512:RESET_B I *D sky130_fd_sc_hd__dfrtp_1
*I *514:RESET_B I *D sky130_fd_sc_hd__dfrtp_1
*I *506:RESET_B I *D sky130_fd_sc_hd__dfrtp_1
*I *513:RESET_B I *D sky130_fd_sc_hd__dfrtp_1
*I *505:RESET_B I *D sky130_fd_sc_hd__dfrtp_1
*I *515:RESET_B I *D sky130_fd_sc_hd__dfrtp_1
*I *486:RESET_B I *D sky130_fd_sc_hd__dfrtp_1
*I *521:RESET_B I *D sky130_fd_sc_hd__dfrtp_1
*I *491:RESET_B I *D sky130_fd_sc_hd__dfrtp_1
*I *490:RESET_B I *D sky130_fd_sc_hd__dfrtp_1
*I *528:RESET_B I *D sky130_fd_sc_hd__dfrtp_1
*I *527:RESET_B I *D sky130_fd_sc_hd__dfrtp_1
*I *541:RESET_B I *D sky130_fd_sc_hd__dfrtp_1
*I *539:RESET_B I *D sky130_fd_sc_hd__dfrtp_1
*I *656:X O *D sky130_fd_sc_hd__buf_12
*CAP
1 *502:RESET_B 0.000283047
2 *501:RESET_B 2.04984e-05
3 *509:RESET_B 2.70374e-05
4 *495:RESET_B 0.000371035
5 *510:RESET_B 0.000313623
6 *493:RESET_B 0.000270645
7 *500:RESET_B 0.000357583
8 *508:RESET_B 0.000626302
9 *511:RESET_B 0.000405071
10 *507:RESET_B 0.000123687
11 *499:RESET_B 0.000925402
12 *519:SET_B 0.000250038
13 *503:RESET_B 0.000665972
14 *504:RESET_B 0.000549028
15 *512:RESET_B 0.000154681
16 *514:RESET_B 0
17 *506:RESET_B 0.000873477
18 *513:RESET_B 0.000665972
19 *505:RESET_B 9.50564e-05
20 *515:RESET_B 0.000287357
21 *486:RESET_B 5.93053e-05
22 *521:RESET_B 4.98727e-05
23 *491:RESET_B 0.000302064
24 *490:RESET_B 0.000215714
25 *528:RESET_B 0.000608536
26 *527:RESET_B 3.08466e-05
27 *541:RESET_B 0.0010258
28 *539:RESET_B 0
29 *656:X 0.000254616
30 *297:322 0.000481667
31 *297:305 0.000564809
32 *297:303 0.000344857
33 *297:228 0.000623367
34 *297:226 0.000407288
35 *297:151 0.00018668
36 *297:137 0.000780693
37 *297:130 0.000330061
38 *297:120 0.000586854
39 *297:109 0.000721479
40 *297:99 0.000540234
41 *297:89 0.000326389
42 *297:75 0.00058542
43 *297:59 0.000418327
44 *297:33 0.000924485
45 *297:8 0.000881481
46 *490:RESET_B *490:CLK 0.000110084
47 *490:RESET_B *527:CLK 1.09738e-05
48 *490:RESET_B *528:CLK 2.71542e-05
49 *490:RESET_B *299:36 5.19205e-05
50 *500:RESET_B *499:CLK 0
51 *501:RESET_B *301:35 5.52256e-05
52 *508:RESET_B *301:12 5.71849e-05
53 *528:RESET_B *666:A 0
54 *528:RESET_B *299:20 0
55 *528:RESET_B *299:26 2.72092e-05
56 *528:RESET_B *299:34 0.000100268
57 *297:59 *299:34 4.78666e-05
58 *297:228 *301:12 0.000121494
59 rx_data[0] *503:RESET_B 1.29996e-05
60 rx_data[0] *512:RESET_B 0.000267649
61 rx_data[0] *297:137 0.000188651
62 rx_data[0] *297:151 9.30553e-05
63 rx_data[2] *297:305 0
64 rx_data[4] *510:RESET_B 0.000118166
65 *309:A1 *541:RESET_B 0
66 *326:A1 *297:109 0
67 *327:A1 *297:109 6.46135e-05
68 *331:A1 *519:SET_B 3.62414e-05
69 *374:A1 *500:RESET_B 0.000160561
70 *374:S *502:RESET_B 3.78664e-05
71 *374:S *297:322 0.000116634
72 *375:A0 *502:RESET_B 5.2737e-05
73 *375:A1 *502:RESET_B 3.21615e-05
74 *375:A1 *297:322 4.64581e-05
75 *377:A1 *508:RESET_B 0
76 *379:A0 *506:RESET_B 6.08467e-05
77 *382:C *297:109 3.06114e-05
78 *382:C *297:120 5.24812e-05
79 *383:A *515:RESET_B 2.29386e-05
80 *383:A *297:109 8.72115e-06
81 *383:A *297:120 6.46137e-05
82 *385:A1 *500:RESET_B 8.62625e-06
83 *386:A1 *495:RESET_B 3.00174e-06
84 *386:A1 *297:305 0.000118894
85 *386:A1 *297:322 7.58595e-05
86 *391:A0 *297:137 7.26606e-05
87 *391:A0 *297:151 7.40253e-05
88 *391:S *297:130 0.000109785
89 *391:S *297:137 0.000171677
90 *409:A0 *297:33 0
91 *423:A2 *528:RESET_B 0
92 *457:A_N *541:RESET_B 1.2601e-05
93 *457:A_N *297:8 2.15543e-05
94 *499:D *500:RESET_B 3.51584e-05
95 *500:D *297:322 0
96 *502:D *502:RESET_B 2.23519e-05
97 *503:D *508:RESET_B 0
98 *503:D *510:RESET_B 5.69404e-05
99 *506:D *506:RESET_B 0.000103441
100 *513:D *503:RESET_B 0.000160047
101 *513:D *297:130 0
102 *517:D *495:RESET_B 0
103 *521:D *521:RESET_B 4.21937e-05
104 *521:D *297:89 2.24632e-05
105 *521:D *297:99 5.05907e-05
106 *521:D *297:109 8.07939e-05
107 *523:D *528:RESET_B 7.48633e-05
108 *524:D *528:RESET_B 0
109 *528:D *490:RESET_B 0.00012568
110 *632:A *508:RESET_B 2.52705e-05
111 *632:A *510:RESET_B 0
112 *633:A *509:RESET_B 2.23519e-05
113 *633:A *297:305 0
114 *635:A *510:RESET_B 0.000195222
115 *638:A *512:RESET_B 0.000283455
116 *638:A *297:151 2.6046e-05
117 *645:A *297:8 0
118 *653:A *297:120 0.000177188
119 *22:8 *297:33 4.02444e-05
120 *85:14 *297:109 0
121 *118:29 *503:RESET_B 3.42506e-05
122 *118:37 *297:120 0
123 *118:37 *297:130 0
124 *118:60 *507:RESET_B 5.80086e-05
125 *118:60 *508:RESET_B 5.01633e-05
126 *118:60 *297:228 5.27791e-05
127 *118:70 *502:RESET_B 1.21985e-05
128 *194:6 *490:RESET_B 9.27233e-05
129 *195:12 *491:RESET_B 2.64021e-05
130 *197:10 *493:RESET_B 0.000104115
131 *200:18 *297:89 1.52215e-05
132 *200:18 *297:99 3.64193e-06
133 *206:8 *510:RESET_B 2.8779e-05
134 *207:10 *511:RESET_B 1.69474e-05
135 *208:8 *512:RESET_B 7.11885e-05
136 *215:10 *499:RESET_B 3.26531e-05
137 *215:10 *500:RESET_B 0
138 *216:23 *500:RESET_B 0.000506702
139 *217:8 *297:322 5.22071e-05
140 *219:8 *503:RESET_B 2.69822e-05
141 *220:10 *504:RESET_B 3.30132e-05
142 *221:8 *505:RESET_B 3.18172e-05
143 *222:27 *506:RESET_B 0.000704819
144 *244:8 *527:RESET_B 7.64959e-06
145 *245:16 *528:RESET_B 0
146 *258:12 *541:RESET_B 4.519e-05
147 *258:27 *541:RESET_B 0
148 *263:8 *541:RESET_B 0
149 *263:8 *297:8 0
150 *286:81 *528:RESET_B 0
151 *286:81 *297:33 0
152 *290:10 *541:RESET_B 3.4475e-05
153 *293:47 *519:SET_B 3.30446e-05
154 *293:67 *528:RESET_B 0
155 *293:67 *297:33 0
156 *293:151 *500:RESET_B 2.09571e-05
157 *294:10 *297:120 0.000179271
158 *294:10 *297:130 0.000273697
*RES
1 *656:X *297:8 19.7337 
2 *297:8 *539:RESET_B 4.5 
3 *297:8 *541:RESET_B 19.2948 
4 *541:RESET_B *297:33 13.6178 
5 *297:33 *527:RESET_B 5.139 
6 *297:33 *528:RESET_B 16.9455 
7 *528:RESET_B *297:59 7.35741 
8 *297:59 *490:RESET_B 12.0301 
9 *297:59 *297:75 1.832 
10 *297:75 *491:RESET_B 9.76873 
11 *297:75 *297:89 5.15401 
12 *297:89 *521:RESET_B 5.6936 
13 *297:89 *297:99 2.24725 
14 *297:99 *486:RESET_B 5.6936 
15 *297:99 *297:109 11.1752 
16 *297:109 *515:RESET_B 5.61141 
17 *297:109 *297:120 9.09891 
18 *297:120 *505:RESET_B 6.80281 
19 *297:120 *297:130 6.81502 
20 *297:130 *513:RESET_B 4.5 
21 *297:130 *297:137 5.15401 
22 *297:137 *506:RESET_B 16.424 
23 *297:137 *297:151 1.832 
24 *297:151 *514:RESET_B 4.5 
25 *297:151 *512:RESET_B 11.5416 
26 *515:RESET_B *504:RESET_B 14.6593 
27 *513:RESET_B *503:RESET_B 12.5871 
28 *506:RESET_B *519:SET_B 15.3998 
29 *504:RESET_B *499:RESET_B 6.65524 
30 *503:RESET_B *297:226 4.5 
31 *297:226 *297:228 3.493 
32 *297:228 *507:RESET_B 7.993 
33 *297:228 *511:RESET_B 12.7829 
34 *297:226 *508:RESET_B 12.6341 
35 *499:RESET_B *500:RESET_B 21.033 
36 *499:RESET_B *493:RESET_B 16.2303 
37 *508:RESET_B *510:RESET_B 18.8146 
38 *500:RESET_B *297:303 4.5 
39 *297:303 *297:305 4.73876 
40 *297:305 *495:RESET_B 13.3913 
41 *297:305 *509:RESET_B 5.139 
42 *297:303 *297:322 6.81502 
43 *297:322 *501:RESET_B 5.139 
44 *297:322 *502:RESET_B 11.954 
*END

*D_NET *298 0.0169681
*CONN
*I *496:RESET_B I *D sky130_fd_sc_hd__dfrtp_1
*I *497:RESET_B I *D sky130_fd_sc_hd__dfrtp_1
*I *498:RESET_B I *D sky130_fd_sc_hd__dfrtp_1
*I *518:RESET_B I *D sky130_fd_sc_hd__dfrtp_1
*I *520:RESET_B I *D sky130_fd_sc_hd__dfrtp_1
*I *522:RESET_B I *D sky130_fd_sc_hd__dfrtp_1
*I *526:RESET_B I *D sky130_fd_sc_hd__dfrtp_1
*I *525:RESET_B I *D sky130_fd_sc_hd__dfrtp_1
*I *523:RESET_B I *D sky130_fd_sc_hd__dfrtp_1
*I *524:RESET_B I *D sky130_fd_sc_hd__dfrtp_1
*I *543:RESET_B I *D sky130_fd_sc_hd__dfrtp_1
*I *542:RESET_B I *D sky130_fd_sc_hd__dfrtp_1
*I *545:RESET_B I *D sky130_fd_sc_hd__dfrtp_1
*I *544:RESET_B I *D sky130_fd_sc_hd__dfrtp_1
*I *657:X O *D sky130_fd_sc_hd__buf_4
*CAP
1 *496:RESET_B 0.000268471
2 *497:RESET_B 0.000198749
3 *498:RESET_B 0.000586318
4 *518:RESET_B 0.000249555
5 *520:RESET_B 0.000523407
6 *522:RESET_B 3.27495e-05
7 *526:RESET_B 0.000502311
8 *525:RESET_B 0
9 *523:RESET_B 0.000736636
10 *524:RESET_B 0.000282111
11 *543:RESET_B 0.000972148
12 *542:RESET_B 0
13 *545:RESET_B 0
14 *544:RESET_B 0
15 *657:X 0.00038426
16 *298:167 0.000717652
17 *298:127 0.000724156
18 *298:115 0.000386609
19 *298:101 0.00136861
20 *298:82 0.000894003
21 *298:64 0.00100663
22 *298:24 0.000788562
23 *298:17 0.000713656
24 *298:10 0.000823886
25 *496:RESET_B *496:CLK 0
26 *497:RESET_B *303:64 0.000181967
27 *522:RESET_B *526:CLK 9.15567e-05
28 *523:RESET_B *299:8 2.65667e-05
29 *524:RESET_B *542:CLK 0.000100409
30 *524:RESET_B *299:14 5.83812e-05
31 *524:RESET_B *299:16 9.27233e-05
32 *298:64 *542:CLK 5.92192e-05
33 *298:167 *496:CLK 2.652e-05
34 *298:167 *303:66 4.1391e-05
35 *323:B *518:RESET_B 4.09471e-05
36 *323:C *518:RESET_B 0.000115934
37 *323:C *520:RESET_B 0.000250814
38 *324:B *518:RESET_B 0.00011818
39 *324:B *298:101 1.53822e-05
40 *324:B *298:127 0.000100193
41 *364:A *498:RESET_B 0.000168319
42 *364:A *298:167 0
43 *367:B2 *497:RESET_B 0.000185758
44 *395:A *298:127 0
45 *398:C *522:RESET_B 0.000203999
46 *398:C *298:101 2.62563e-05
47 *410:A *298:101 0.000148763
48 *411:A *298:101 0.000116705
49 *413:A2 *298:101 3.14347e-05
50 *413:A3 *298:101 5.54585e-05
51 *413:B1 *298:101 8.77364e-05
52 *414:B1 *298:101 0.000257376
53 *415:B *298:101 5.1771e-05
54 *470:A1 *298:10 0
55 *470:A1 *298:17 0
56 *474:A1 *298:17 0
57 *480:B *497:RESET_B 0.000112985
58 *481:A *498:RESET_B 0.000122978
59 *481:B *298:167 9.905e-05
60 *496:D *496:RESET_B 4.27003e-05
61 *498:D *298:167 2.58616e-05
62 *522:D *298:101 1.03594e-05
63 *522:D *298:115 8.5976e-05
64 *523:D *523:RESET_B 9.81956e-05
65 *526:D *526:RESET_B 0.000498373
66 *545:CLK *298:17 0
67 *124:10 *298:127 0
68 *124:16 *298:101 9.64558e-05
69 *212:10 *496:RESET_B 2.51446e-05
70 *212:14 *496:RESET_B 6.36773e-05
71 *212:16 *496:RESET_B 0.00015709
72 *212:16 *497:RESET_B 6.50586e-05
73 *214:6 *298:167 4.59816e-06
74 *214:8 *298:167 3.54227e-05
75 *225:8 *518:RESET_B 0.000118166
76 *227:12 *498:RESET_B 1.92926e-05
77 *227:12 *520:RESET_B 0
78 *227:12 *298:127 0
79 *228:93 *298:101 0.000151115
80 *260:12 *543:RESET_B 0.000114915
81 *262:21 *298:17 0.000118002
82 *285:26 *524:RESET_B 5.69911e-05
83 *285:26 *298:64 0
84 *289:6 *518:RESET_B 3.14978e-05
*RES
1 *657:X *298:10 22.6755 
2 *298:10 *544:RESET_B 4.5 
3 *298:10 *298:17 11.3828 
4 *298:17 *545:RESET_B 4.5 
5 *298:17 *298:24 6.81502 
6 *298:24 *542:RESET_B 4.5 
7 *298:24 *543:RESET_B 16.2599 
8 *543:RESET_B *524:RESET_B 8.15026 
9 *543:RESET_B *298:64 9.23876 
10 *298:64 *523:RESET_B 19.9445 
11 *298:64 *298:82 2.24725 
12 *298:82 *525:RESET_B 4.5 
13 *298:82 *298:101 23.4007 
14 *298:101 *526:RESET_B 13.651 
15 *298:101 *298:115 1.832 
16 *298:115 *522:RESET_B 6.80281 
17 *298:115 *298:127 7.54782 
18 *298:127 *520:RESET_B 9.97156 
19 *298:127 *518:RESET_B 11.7942 
20 *520:RESET_B *498:RESET_B 18.1178 
21 *498:RESET_B *298:167 15.4898 
22 *298:167 *497:RESET_B 8.04175 
23 *298:167 *496:RESET_B 16.8171 
*END

*D_NET *299 0.00968538
*CONN
*I *525:CLK I *D sky130_fd_sc_hd__dfrtp_1
*I *542:CLK I *D sky130_fd_sc_hd__dfrtp_1
*I *543:CLK I *D sky130_fd_sc_hd__dfrtp_1
*I *524:CLK I *D sky130_fd_sc_hd__dfrtp_1
*I *666:A I *D sky130_fd_sc_hd__clkinv_2
*I *523:CLK I *D sky130_fd_sc_hd__dfrtp_1
*I *528:CLK I *D sky130_fd_sc_hd__dfrtp_1
*I *490:CLK I *D sky130_fd_sc_hd__dfrtp_1
*I *527:CLK I *D sky130_fd_sc_hd__dfrtp_1
*I *658:X O *D sky130_fd_sc_hd__clkbuf_8
*CAP
1 *525:CLK 0.000171311
2 *542:CLK 0.000471989
3 *543:CLK 0
4 *524:CLK 0
5 *666:A 0.000187368
6 *523:CLK 0
7 *528:CLK 3.07564e-05
8 *490:CLK 0.000286512
9 *527:CLK 0.000293385
10 *658:X 2.64699e-05
11 *299:36 0.000663888
12 *299:34 0.000784236
13 *299:26 0.00102501
14 *299:20 0.0006645
15 *299:16 0.000404544
16 *299:14 0.000340632
17 *299:12 0.000662203
18 *299:8 0.000330302
19 *406:A *299:16 0.000344744
20 *409:A0 *299:16 5.05707e-05
21 *409:A1 *666:A 0
22 *409:S *525:CLK 0
23 *409:S *299:12 0
24 *424:A0 *527:CLK 0.000108054
25 *424:A1 *527:CLK 9.35753e-06
26 *424:S *527:CLK 0.000265211
27 *425:B1 *527:CLK 5.03285e-05
28 *455:A *542:CLK 0.000136879
29 *461:B *542:CLK 4.99471e-05
30 *463:A *542:CLK 5.50377e-05
31 *465:A2 *542:CLK 0.000521459
32 *490:D *490:CLK 7.90125e-05
33 *490:RESET_B *490:CLK 0.000110084
34 *490:RESET_B *527:CLK 1.09738e-05
35 *490:RESET_B *528:CLK 2.71542e-05
36 *490:RESET_B *299:36 5.19205e-05
37 *523:D *299:26 0.000163912
38 *523:RESET_B *299:8 2.65667e-05
39 *524:RESET_B *542:CLK 0.000100409
40 *524:RESET_B *299:14 5.83812e-05
41 *524:RESET_B *299:16 9.27233e-05
42 *528:RESET_B *666:A 0
43 *528:RESET_B *299:20 0
44 *528:RESET_B *299:26 2.72092e-05
45 *528:RESET_B *299:34 0.000100268
46 *542:D *542:CLK 0.000125395
47 *194:6 *490:CLK 0.0001674
48 *231:6 *299:16 9.16621e-05
49 *245:16 *299:34 7.48797e-05
50 *245:20 *527:CLK 0
51 *259:10 *542:CLK 0.000289941
52 *285:26 *525:CLK 0
53 *285:26 *542:CLK 4.57017e-05
54 *285:26 *299:12 0
55 *293:67 *666:A 0
56 *293:67 *299:20 0
57 *297:59 *299:34 4.78666e-05
58 *298:64 *542:CLK 5.92192e-05
*RES
1 *658:X *299:8 14.4725 
2 *299:8 *299:12 7.57775 
3 *299:12 *299:14 1.8326 
4 *299:14 *299:16 11.2609 
5 *299:16 *299:20 6.74725 
6 *299:20 *299:26 11.2035 
7 *299:26 *299:34 16.9183 
8 *299:34 *299:36 2.24725 
9 *299:36 *527:CLK 22.4024 
10 *299:36 *490:CLK 23.3462 
11 *299:34 *528:CLK 14.7506 
12 *299:26 *523:CLK 9.24915 
13 *299:20 *666:A 18.0727 
14 *299:16 *524:CLK 9.24915 
15 *299:14 *543:CLK 9.24915 
16 *299:12 *542:CLK 34.6227 
17 *299:8 *525:CLK 17.9749 
*END

*D_NET *300 0.00782232
*CONN
*I *493:CLK I *D sky130_fd_sc_hd__dfrtp_1
*I *667:A I *D sky130_fd_sc_hd__clkinv_2
*I *517:CLK I *D sky130_fd_sc_hd__dfxtp_1
*I *509:CLK I *D sky130_fd_sc_hd__dfrtp_1
*I *495:CLK I *D sky130_fd_sc_hd__dfrtp_1
*I *494:CLK I *D sky130_fd_sc_hd__dfrtp_1
*I *492:CLK I *D sky130_fd_sc_hd__dfrtp_1
*I *516:CLK I *D sky130_fd_sc_hd__dfxtp_1
*I *486:CLK I *D sky130_fd_sc_hd__dfrtp_1
*I *659:X O *D sky130_fd_sc_hd__clkbuf_8
*CAP
1 *493:CLK 0
2 *667:A 0
3 *517:CLK 0
4 *509:CLK 0.000375735
5 *495:CLK 0
6 *494:CLK 0.000108248
7 *492:CLK 0.000255161
8 *516:CLK 0
9 *486:CLK 0.000119696
10 *659:X 0.00045448
11 *300:48 0.000607238
12 *300:46 0.000370544
13 *300:44 0.000606967
14 *300:40 0.000600355
15 *300:38 0.000606869
16 *300:34 0.000391696
17 *300:25 0.000477422
18 *300:8 0.000770933
19 *486:CLK *521:CLK 0.000106165
20 *300:25 *521:CLK 5.54078e-05
21 *355:A *300:8 6.50586e-05
22 *355:C *300:8 0.000122378
23 *356:A1 *300:8 0.000110393
24 *356:A2 *300:8 1.41291e-05
25 *492:D *492:CLK 2.91206e-05
26 *493:D *300:8 0.000380598
27 *494:D *492:CLK 5.37077e-05
28 *494:D *494:CLK 5.04829e-06
29 *494:D *300:48 8.6027e-05
30 *509:D *509:CLK 7.39214e-06
31 *516:D *300:25 0.000151149
32 *516:D *300:34 0.000291768
33 *516:D *300:38 7.03781e-05
34 *516:D *300:40 0.000236709
35 *517:D *300:40 1.87611e-05
36 *517:D *300:46 0
37 *517:D *300:48 0
38 *197:10 *300:34 0.00027279
*RES
1 *659:X *300:8 26.6738 
2 *300:8 *486:CLK 17.6574 
3 *300:8 *300:25 10.2678 
4 *300:25 *516:CLK 9.24915 
5 *300:25 *300:34 11.8396 
6 *300:34 *300:38 3.52053 
7 *300:38 *300:40 14.0339 
8 *300:40 *300:44 6.88721 
9 *300:44 *300:46 3.07775 
10 *300:46 *300:48 6.39977 
11 *300:48 *492:CLK 20.0446 
12 *300:48 *494:CLK 16.1605 
13 *300:46 *495:CLK 13.7491 
14 *300:44 *509:CLK 22.812 
15 *300:40 *517:CLK 9.24915 
16 *300:38 *667:A 9.24915 
17 *300:34 *493:CLK 9.24915 
*END

*D_NET *301 0.0135688
*CONN
*I *512:CLK I *D sky130_fd_sc_hd__dfrtp_1
*I *505:CLK I *D sky130_fd_sc_hd__dfrtp_1
*I *507:CLK I *D sky130_fd_sc_hd__dfrtp_1
*I *499:CLK I *D sky130_fd_sc_hd__dfrtp_1
*I *503:CLK I *D sky130_fd_sc_hd__dfrtp_1
*I *508:CLK I *D sky130_fd_sc_hd__dfrtp_1
*I *510:CLK I *D sky130_fd_sc_hd__dfrtp_1
*I *502:CLK I *D sky130_fd_sc_hd__dfrtp_1
*I *501:CLK I *D sky130_fd_sc_hd__dfrtp_1
*I *500:CLK I *D sky130_fd_sc_hd__dfrtp_1
*I *511:CLK I *D sky130_fd_sc_hd__dfrtp_1
*I *660:X O *D sky130_fd_sc_hd__clkbuf_8
*CAP
1 *512:CLK 0.000480784
2 *505:CLK 0
3 *507:CLK 0
4 *499:CLK 0.000420268
5 *503:CLK 0
6 *508:CLK 0.000378168
7 *510:CLK 0.000590447
8 *502:CLK 0.000232062
9 *501:CLK 0
10 *500:CLK 0.000465154
11 *511:CLK 2.82348e-05
12 *660:X 0
13 *301:107 0.000913106
14 *301:105 0.000624401
15 *301:101 0.00088189
16 *301:37 0.00050593
17 *301:35 0.00106976
18 *301:20 0.000906438
19 *301:18 0.000969941
20 *301:14 0.000767264
21 *301:12 0.000386578
22 *301:4 0.000565232
23 *375:A1 *511:CLK 2.5971e-05
24 *375:A1 *301:20 2.18698e-05
25 *384:A0 *512:CLK 0.000151258
26 *385:A1 *499:CLK 0
27 *386:S *499:CLK 0.000439194
28 *387:A1 *510:CLK 7.40253e-05
29 *388:A0 *301:14 4.81452e-05
30 *388:A0 *301:18 6.5568e-05
31 *388:A1 *301:12 9.82381e-05
32 *388:A1 *301:14 2.20471e-05
33 *388:S *301:14 2.08274e-05
34 *388:S *301:18 8.8047e-05
35 *499:D *499:CLK 0.000131228
36 *500:D *500:CLK 7.34948e-06
37 *500:RESET_B *499:CLK 0
38 *501:D *500:CLK 0
39 *501:D *301:35 8.50305e-05
40 *501:RESET_B *301:35 5.52256e-05
41 *505:D *301:105 1.13359e-05
42 *508:D *508:CLK 0.000164574
43 *508:RESET_B *301:12 5.71849e-05
44 *510:D *510:CLK 2.652e-05
45 *511:D *510:CLK 8.62474e-06
46 *511:D *511:CLK 8.61152e-06
47 *511:D *301:18 0.000464663
48 *511:D *301:20 3.82612e-05
49 *512:D *512:CLK 2.93828e-05
50 *633:A *500:CLK 0.000330596
51 *635:A *508:CLK 0.000292682
52 *118:70 *510:CLK 0.000112618
53 *118:70 *301:20 5.71992e-05
54 *203:10 *512:CLK 0.000137009
55 *203:10 *301:105 0.000162551
56 *203:10 *301:107 2.57847e-05
57 *297:228 *301:12 0.000121494
*RES
1 *660:X *301:4 9.24915 
2 *301:4 *301:12 17.238 
3 *301:12 *301:14 2.38721 
4 *301:14 *301:18 13.5424 
5 *301:18 *301:20 2.6625 
6 *301:20 *511:CLK 14.7506 
7 *301:20 *301:35 20.8155 
8 *301:35 *301:37 1.00149 
9 *301:37 *500:CLK 26.1396 
10 *301:37 *501:CLK 13.7491 
11 *301:35 *502:CLK 19.3184 
12 *301:18 *510:CLK 26.5709 
13 *301:14 *508:CLK 27.1943 
14 *301:12 *503:CLK 9.24915 
15 *301:4 *301:101 10.2148 
16 *301:101 *301:105 8.40826 
17 *301:105 *301:107 11.2609 
18 *301:107 *499:CLK 30.9478 
19 *301:107 *507:CLK 9.24915 
20 *301:105 *505:CLK 9.24915 
21 *301:101 *512:CLK 26.3777 
*END

*D_NET *302 0.0098627
*CONN
*I *518:CLK I *D sky130_fd_sc_hd__dfrtp_1
*I *526:CLK I *D sky130_fd_sc_hd__dfrtp_1
*I *522:CLK I *D sky130_fd_sc_hd__dfrtp_1
*I *668:A I *D sky130_fd_sc_hd__clkinvlp_4
*I *515:CLK I *D sky130_fd_sc_hd__dfrtp_1
*I *504:CLK I *D sky130_fd_sc_hd__dfrtp_1
*I *521:CLK I *D sky130_fd_sc_hd__dfrtp_1
*I *661:X O *D sky130_fd_sc_hd__clkbuf_8
*CAP
1 *518:CLK 0.000313322
2 *526:CLK 0.000370498
3 *522:CLK 0
4 *668:A 0
5 *515:CLK 0
6 *504:CLK 0.00048964
7 *521:CLK 0.000607166
8 *661:X 4.81148e-05
9 *302:64 0.000735715
10 *302:60 0.000803413
11 *302:35 0.000653008
12 *302:20 0.00156574
13 *302:16 0.000995533
14 *302:10 0.000373313
15 *320:A2 *302:10 0.000123126
16 *329:C_N *302:16 0
17 *331:A1 *518:CLK 0.000163912
18 *331:A2 *302:64 5.481e-05
19 *338:A *302:10 7.20028e-05
20 *338:A *302:60 0.000163359
21 *398:A *302:60 3.54726e-05
22 *398:B *518:CLK 2.86829e-05
23 *398:B *302:60 7.73683e-05
24 *398:B *302:64 0.000177254
25 *398:C *526:CLK 0.000173919
26 *398:C *302:64 0.000118528
27 *486:CLK *521:CLK 0.000106165
28 *518:D *518:CLK 0
29 *522:RESET_B *526:CLK 9.15567e-05
30 *526:D *526:CLK 6.08467e-05
31 *85:47 *302:16 0.00014518
32 *85:53 *302:10 6.08467e-05
33 *85:53 *302:16 5.46384e-06
34 *85:53 *302:60 3.87022e-06
35 *85:68 *302:60 5.18062e-06
36 *124:10 *526:CLK 3.16904e-05
37 *127:12 *302:64 2.41961e-05
38 *223:6 *302:20 0.000236357
39 *223:23 *302:20 0.000236305
40 *226:8 *518:CLK 0.000363414
41 *226:39 *302:64 6.08467e-05
42 *233:26 *302:16 7.48797e-05
43 *233:34 *302:16 6.7098e-05
44 *233:34 *302:20 8.94959e-05
45 *293:47 *518:CLK 0
46 *300:25 *521:CLK 5.54078e-05
*RES
1 *661:X *302:10 16.1605 
2 *302:10 *302:16 11.0742 
3 *302:16 *302:20 26.8529 
4 *302:20 *521:CLK 29.1858 
5 *302:20 *302:35 8.40826 
6 *302:35 *504:CLK 29.2601 
7 *302:35 *515:CLK 9.24915 
8 *302:16 *668:A 9.24915 
9 *302:10 *302:60 4.32351 
10 *302:60 *302:64 15.2063 
11 *302:64 *522:CLK 9.24915 
12 *302:64 *526:CLK 28.1804 
13 *302:60 *518:CLK 24.6152 
*END

*D_NET *303 0.011258
*CONN
*I *669:A I *D sky130_fd_sc_hd__clkinv_2
*I *497:CLK I *D sky130_fd_sc_hd__dfrtp_1
*I *496:CLK I *D sky130_fd_sc_hd__dfrtp_1
*I *498:CLK I *D sky130_fd_sc_hd__dfrtp_1
*I *520:CLK I *D sky130_fd_sc_hd__dfrtp_1
*I *506:CLK I *D sky130_fd_sc_hd__dfrtp_1
*I *514:CLK I *D sky130_fd_sc_hd__dfrtp_1
*I *513:CLK I *D sky130_fd_sc_hd__dfrtp_1
*I *519:CLK I *D sky130_fd_sc_hd__dfstp_2
*I *662:X O *D sky130_fd_sc_hd__clkbuf_8
*CAP
1 *669:A 0
2 *497:CLK 0
3 *496:CLK 0.000390057
4 *498:CLK 0
5 *520:CLK 0.000688184
6 *506:CLK 0
7 *514:CLK 8.79688e-05
8 *513:CLK 8.04507e-05
9 *519:CLK 9.29417e-05
10 *662:X 0.00018136
11 *303:66 0.000738824
12 *303:64 0.00141023
13 *303:58 0.0013789
14 *303:29 0.000535847
15 *303:25 0.000367427
16 *303:23 0.000486468
17 *303:12 0.000216499
18 *303:8 0.000227815
19 *323:C *520:CLK 2.48716e-05
20 *330:A *520:CLK 8.23435e-05
21 *330:B *520:CLK 1.45799e-05
22 *366:A *520:CLK 1.59756e-05
23 *367:B2 *303:64 0.000164815
24 *377:S *513:CLK 5.01992e-05
25 *377:S *514:CLK 7.23367e-05
26 *379:A0 *513:CLK 0.000196969
27 *379:A0 *514:CLK 2.1667e-05
28 *379:A0 *303:29 0.000597551
29 *380:A *303:8 5.1155e-05
30 *381:B1 *303:8 0.000354448
31 *389:A0 *514:CLK 8.62625e-06
32 *389:S *514:CLK 4.1892e-05
33 *391:S *303:29 1.43832e-05
34 *481:B *520:CLK 3.55816e-05
35 *481:B *303:66 8.36429e-06
36 *496:D *496:CLK 3.19547e-05
37 *496:RESET_B *496:CLK 0
38 *497:RESET_B *303:64 0.000181967
39 *520:D *520:CLK 5.97561e-05
40 *637:A *303:23 0.000144659
41 *637:A *303:58 0.000163154
42 *639:A *519:CLK 0.000171811
43 *639:A *303:23 0.000203436
44 *639:A *303:58 0.000154788
45 *662:A *303:8 8.6773e-05
46 *115:10 *520:CLK 1.8096e-05
47 *118:6 *303:8 6.69545e-05
48 *118:18 *519:CLK 2.10465e-05
49 *118:18 *303:8 3.31745e-05
50 *118:18 *303:23 3.02592e-05
51 *118:29 *303:8 7.06733e-06
52 *118:31 *513:CLK 3.44412e-06
53 *222:27 *303:29 0.000547712
54 *289:53 *496:CLK 0.000301483
55 *289:53 *520:CLK 0.000138334
56 *289:53 *303:66 0.000113714
57 *293:47 *303:8 6.31081e-05
58 *294:25 *514:CLK 8.70662e-06
59 *298:167 *496:CLK 2.652e-05
60 *298:167 *303:66 4.1391e-05
*RES
1 *662:X *303:8 16.6519 
2 *303:8 *303:12 5.2328 
3 *303:12 *519:CLK 16.8269 
4 *303:12 *303:23 3.90826 
5 *303:23 *303:25 4.5 
6 *303:25 *303:29 17.4247 
7 *303:29 *513:CLK 17.2421 
8 *303:29 *514:CLK 16.8269 
9 *303:25 *506:CLK 9.24915 
10 *303:23 *303:58 15.511 
11 *303:58 *303:64 20.0771 
12 *303:64 *303:66 2.24725 
13 *303:66 *520:CLK 27.8839 
14 *303:66 *498:CLK 13.7491 
15 *303:64 *496:CLK 23.6425 
16 *303:58 *497:CLK 9.24915 
17 *303:8 *669:A 9.24915 
*END

*D_NET *304 0.0017478
*CONN
*I *430:A I *D sky130_fd_sc_hd__buf_2
*I *670:X O *D sky130_fd_sc_hd__dlygate4sd3_1
*CAP
1 *430:A 0.000873902
2 *670:X 0.000873902
*RES
1 *670:X *430:A 32.8698 
*END
